LAMMPS (4 Jul 2026 - Development - 970d4ba)
  using 24 OpenMP thread(s) per MPI task
package gpu 1 neigh no
# =============================================================================
# 01 — Ideal Gas (2D) — 200 atoms, L=30, rho~0.22, T*=3.0, NVE
# Purpose: Show chaotic ballistic motion of a dilute gas. No structure, no order.
# 2D so the motion is clearly visible (not buried in 3D depth).
# Units: lj, pair lj/cut 2.5 (eps=0.1 for near-ideal), dt=0.01
# Steps: 3000, dump every 15 => 200 frames for ~13s video at 15fps
# =============================================================================
units           lj
atom_style      atomic
dimension       2
boundary        p p p

region          box block 0 30 0 30 -0.5 0.5
create_box      1 box
Created orthogonal box = (0 0 -0.5) to (30 30 0.5)
  1 by 1 by 1 MPI processor grid
create_atoms    1 random 250 12345 Done.

Generated 0 of 0 mixed pair_coeff terms from geometric mixing rule
Neighbor list info ...
  update: every = 1 steps, delay = 0 steps, check = yes
  max neighbors/atom: 2000, page size: 100000
  master list distance cutoff = 2.8
  ghost atom cutoff = 2.8
  binsize = 1.4, bins = 22 22 1
  2 neighbor lists, perpetual/occasional/extra = 1 1 0
  (1) command delete_atoms, occasional, copy from (2)
      attributes: full, newton on
      pair build: copy
      stencil: none
      bin: none
  (2) pair lj/cut/gpu, perpetual
      attributes: full, newton on
      pair build: full/bin/atomonly
      stencil: full/bin/2d
      bin: standard
Deleted 56 atoms, new total = 194

CITE-CITE-CITE-CITE-CITE-CITE-CITE-CITE-CITE-CITE-CITE-CITE-CITE

Your simulation uses code contributions which should be cited:
- GPU package (short-range, long-range and three-body potentials): https://doi.org/10.1016/j.cpc.2010.12.021, https://doi.org/10.1016/j.cpc.2011.10.012, https://doi.org/10.1016/j.cpc.2013.08.002, https://doi.org/10.1016/j.commatsci.2014.10.068, https://doi.org/10.1016/j.cpc.2016.10.020, https://doi.org/10.3233/APC200086
The log file lists these citations in BibTeX format.

CITE-CITE-CITE-CITE-CITE-CITE-CITE-CITE-CITE-CITE-CITE-CITE-CITE


--------------------------------------------------------------------------
- Using acceleration for lj/cut:
-  with 1 proc(s) per device.
-  with 24 thread(s) per proc.
-  Horizontal vector operations: ENABLED
-  Shared memory system: No
--------------------------------------------------------------------------
Device 0: NVIDIA A100 80GB PCIe, 108 CUs, 37/79 GB, 1.4 GHZ (Mixed Precision)
--------------------------------------------------------------------------

Initializing Device and compiling on process 0...Done.
Initializing Device 0 on core 0...Done.

Generated 0 of 0 mixed pair_coeff terms from geometric mixing rule
Neighbor list info ...
  update: every = 1 steps, delay = 0 steps, check = yes
  max neighbors/atom: 2000, page size: 100000
  master list distance cutoff = 2.8
  ghost atom cutoff = 2.8
  binsize = 1.4, bins = 22 22 1
  1 neighbor lists, perpetual/occasional/extra = 1 0 0
  (1) pair lj/cut/gpu, perpetual
      attributes: full, newton on
      pair build: full/bin/atomonly
      stencil: full/bin/2d
      bin: standard
Setting up cg style minimization ...
  Unit style    : lj
  Current step  : 0
Per MPI rank memory allocation (min/avg/max) = 25.47 | 25.47 | 25.47 Mbytes
   Step          Temp          E_pair         E_mol          TotEng         Press     
         0   0              0.10244548     0              0.10244548     0.24708783   
       157   0             -0.14759769     0             -0.14759769    -0.00063311804
Loop time of 16.2083 on 24 procs for 157 steps with 194 atoms

329.0% CPU use with 1 MPI tasks x 24 OpenMP threads

Minimization stats:
  Stopping criterion = energy tolerance
  Energy initial, next-to-last, final = 
     0.102445478392369 -0.147583874412356 -0.147597688397263
  Force two-norm initial, final = 202.4186 0.22158863
  Force max component initial, final = 59.392567 0.077481034
  Final line search alpha, max atom move = 0.91961696 0.071252873
  Iterations, force evaluations = 157 302

MPI task timing breakdown:
Section |  min time  |  avg time  |  max time  |%varavg| %total
---------------------------------------------------------------
Pair    | 14.845     | 14.845     | 14.845     |   0.0 | 91.59
Neigh   | 0.0028945  | 0.0028945  | 0.0028945  |   0.0 |  0.02
Comm    | 0.00087439 | 0.00087439 | 0.00087439 |   0.0 |  0.01
Output  | 0          | 0          | 0          |   0.0 |  0.00
Modify  | 9.5824e-05 | 9.5824e-05 | 9.5824e-05 |   0.0 |  0.00
Other   |            | 1.36       |            |       |  8.39

Nlocal:            194 ave         194 max         194 min
Histogram: 1 0 0 0 0 0 0 0 0 0
Nghost:             81 ave          81 max          81 min
Histogram: 1 0 0 0 0 0 0 0 0 0
Neighs:              0 ave           0 max           0 min
Histogram: 1 0 0 0 0 0 0 0 0 0
FullNghs:         1072 ave        1072 max        1072 min
Histogram: 1 0 0 0 0 0 0 0 0 0

Total # of neighbors = 1072
Ave neighs/atom = 5.5257732
Neighbor list builds = 45
Dangerous builds = 0


---------------------------------------------------------------------
      Device Time Info (average): 
---------------------------------------------------------------------
Data Transfer:   0.0870 s.
Neighbor copy:   0.0367 s.
Neighbor unpack: 0.0000 s.
Force calc:      0.0314 s.
Device Overhead: 0.0075 s.
CPU Cast/Pack:   14.8080 s.
CPU Driver_Time: 0.0037 s.
CPU Idle_Time:   0.1379 s.
Average split:   1.0000.
Max Mem / Proc:  1.04 MB.
Prefetch mode:   None.
Vector width:    32.
Lanes / atom:    4.
Pair block:      256.
Neigh block:     128.
Neigh mode:      Host.
---------------------------------------------------------------------


--------------------------------------------------------------------------
- Using acceleration for lj/cut:
-  with 1 proc(s) per device.
-  with 24 thread(s) per proc.
-  Horizontal vector operations: ENABLED
-  Shared memory system: No
--------------------------------------------------------------------------
Device 0: NVIDIA A100 80GB PCIe, 108 CUs, 37/79 GB, 1.4 GHZ (Mixed Precision)
--------------------------------------------------------------------------

Initializing Device and compiling on process 0...Done.
Initializing Device 0 on core 0...Done.

Generated 0 of 0 mixed pair_coeff terms from geometric mixing rule
Setting up Verlet run ...
  Unit style    : lj
  Current step  : 157
  Time step     : 0.01
Per MPI rank memory allocation (min/avg/max) = 24.35 | 24.35 | 24.35 Mbytes
   Step          Temp          PotEng         KinEng         TotEng         Press     
       157   3             -0.14759769     2.9845361      2.8369384      0.64270022   
       200   2.874637      -0.022872032    2.8598193      2.8369473      0.67795719   
       400   2.7501529      0.10109079     2.7359769      2.8370677      0.82550435   
       600   2.8448269      0.0067074362   2.8301628      2.8368703      0.70829857   
       800   2.755016       0.09676218     2.7408149      2.8375771      0.83187236   
      1000   2.831652       0.02296899     2.8170559      2.8400249      0.71937192   
      1200   2.8261954      0.028524588    2.8116274      2.840152       0.74111679   
      1400   2.8059692      0.046480933    2.7915054      2.8379864      0.75705383   
      1600   2.8423502      0.0092096164   2.8276989      2.8369085      0.71666285   
      1800   2.6922171      0.1608486      2.6783397      2.8391883      0.91010363   
      2000   2.7288782      0.12411776     2.7148118      2.8389295      0.85641883   
      2200   2.7877084      0.063842307    2.7733387      2.837181       0.78132899   
      2400   2.7118423      0.13984957     2.6978637      2.8377133      0.88623596   
      2600   2.8122062      0.039128529    2.7977103      2.8368389      0.74848367   
      2800   2.8010703      0.048933427    2.7866318      2.8355652      0.76207769   
      3000   2.8209081      0.028408001    2.8063674      2.8347754      0.73963661   
      3157   2.7921522      0.058102677    2.7777596      2.8358623      0.7810158    
Loop time of 308.7 on 24 procs for 3000 steps with 194 atoms

Performance: 8396.498 tau/day, 9.718 timesteps/s, 1.885 katom-step/s
334.1% CPU use with 1 MPI tasks x 24 OpenMP threads

MPI task timing breakdown:
Section |  min time  |  avg time  |  max time  |%varavg| %total
---------------------------------------------------------------
Pair    | 145.3      | 145.3      | 145.3      |   0.0 | 47.07
Neigh   | 0.029433   | 0.029433   | 0.029433   |   0.0 |  0.01
Comm    | 0.019811   | 0.019811   | 0.019811   |   0.0 |  0.01
Output  | 0.18086    | 0.18086    | 0.18086    |   0.0 |  0.06
Modify  | 147.96     | 147.96     | 147.96     |   0.0 | 47.93
Other   |            | 15.21      |            |       |  4.93

Nlocal:            194 ave         194 max         194 min
Histogram: 1 0 0 0 0 0 0 0 0 0
Nghost:             70 ave          70 max          70 min
Histogram: 1 0 0 0 0 0 0 0 0 0
Neighs:              0 ave           0 max           0 min
Histogram: 1 0 0 0 0 0 0 0 0 0
FullNghs:          972 ave         972 max         972 min
Histogram: 1 0 0 0 0 0 0 0 0 0

Total # of neighbors = 972
Ave neighs/atom = 5.0103093
Neighbor list builds = 300
Dangerous builds = 300


---------------------------------------------------------------------
      Device Time Info (average): 
---------------------------------------------------------------------
Data Transfer:   0.8945 s.
Neighbor copy:   0.3521 s.
Neighbor unpack: 0.0000 s.
Force calc:      0.4022 s.
Device Overhead: 0.0747 s.
CPU Cast/Pack:   143.1821 s.
CPU Driver_Time: 0.0364 s.
CPU Idle_Time:   1.7312 s.
Average split:   1.0000.
Max Mem / Proc:  1.04 MB.
Prefetch mode:   None.
Vector width:    32.
Lanes / atom:    4.
Pair block:      256.
Neigh block:     128.
Neigh mode:      Host.
---------------------------------------------------------------------

Total wall time: 0:05:26
Ave neighs/atom = 5.0103093
Neighbor list builds = 300
Dangerous builds = 300
Total wall time: 0:05:26
