ITEM: TIMESTEP
165
ITEM: NUMBER OF ATOMS
194
ITEM: BOX BOUNDS pp pp pp
0.0000000000000000e+00 3.0000000000000000e+01
0.0000000000000000e+00 3.0000000000000000e+01
-5.0000000000000000e-01 5.0000000000000000e-01
ITEM: ATOMS id type x y z
1 1 26.8398 9.92499 0
2 1 22.8908 14.3955 0
3 1 27.6106 26.2562 0
4 1 3.0674 20.7708 0
5 1 7.58281 5.11781 0
6 1 10.3221 15.6755 0
7 1 5.40273 9.09504 0
8 1 17.9981 10.2777 0
9 1 28.7586 26.0185 0
10 1 16.9071 5.47889 0
11 1 27.96 9.59353 0
12 1 14.2766 2.26627 0
13 1 16.2239 2.98225 0
14 1 12.5023 8.13476 0
15 1 26.9455 6.74563 0
16 1 17.8132 11.3956 0
17 1 24.9728 7.45098 0
18 1 19.8863 26.1805 0
19 1 15.4955 20.7482 0
20 1 6.46373 9.144 0
21 1 13.0762 25.4361 0
22 1 11.6397 9.11624 0
23 1 4.11482 13.272 0
24 1 1.89463 0.649245 0
25 1 19.6581 13.8991 0
26 1 2.64756 21.9862 0
27 1 29.7988 14.1195 0
28 1 20.6279 9.75348 0
29 1 21.8102 28.8363 0
30 1 21.1685 24.6866 0
31 1 7.50041 22.6022 0
32 1 12.9958 24.3556 0
33 1 13.508 11.6081 0
34 1 0.40744 26.5117 0
35 1 13.9527 3.39122 0
36 1 17.3085 24.5721 0
37 1 27.8064 20.0906 0
38 1 15.3071 18.7395 0
39 1 15.9952 1.01628 0
40 1 16.9699 25.2955 0
41 1 26.9466 22.4516 0
42 1 1.18912 4.42914 0
43 1 7.52999 21.4804 0
44 1 11.5008 25.7813 0
45 1 2.06123 4.35454 0
46 1 5.10909 3.27057 0
47 1 14.6974 19.755 0
48 1 10.4135 26.4914 0
49 1 1.44555 5.29973 0
50 1 2.32903 25.2181 0
51 1 26.5255 19.515 0
52 1 15.6062 17.6326 0
53 1 16.3418 18.4537 0
54 1 20.4181 23.2758 0
55 1 25.8829 23.2566 0
56 1 9.84444 1.64531 0
57 1 15.7569 25.6069 0
58 1 8.75262 4.61354 0
59 1 27.9575 17.8574 0
60 1 20.8494 26.6989 0
61 1 26.9047 9.13031 0
62 1 22.1383 2.07852 0
63 1 26.1274 6.31817 0
64 1 21.0208 1.65084 0
65 1 0.406278 22.4673 0
66 1 9.4685 5.02282 0
67 1 15.0795 24.586 0
68 1 5.03724 16.9512 0
69 1 13.6649 8.60046 0
70 1 4.15746 21.6042 0
71 1 4.43099 12.4523 0
72 1 2.50373 26.6262 0
73 1 6.3856 22.4477 0
74 1 25.7938 9.71785 0
75 1 1.40688 27.3149 0
76 1 23.955 11.4736 0
77 1 5.67861 25.8457 0
78 1 12.3158 7.09554 0
79 1 9.60473 4.21765 0
80 1 6.18679 21.3498 0
81 1 16.7029 17.5191 0
82 1 14.0959 24.7579 0
83 1 3.85245 28.1074 0
84 1 14.0471 10.5866 0
85 1 2.44168 5.47887 0
86 1 15.9605 16.854 0
87 1 14.6328 18.0991 0
88 1 12.2175 24.8111 0
89 1 23.2116 20.5719 0
90 1 18.0826 5.83971 0
91 1 3.02409 0.991043 0
92 1 15.0367 13.8574 0
93 1 12.6546 9.28478 0
94 1 21.8366 27.4918 0
95 1 1.83354 21.1958 0
96 1 12.2727 26.1778 0
97 1 6.87919 0.167836 0
98 1 3.34824 27.1758 0
99 1 20.0108 27.3023 0
100 1 17.2304 16.3615 0
101 1 11.8237 13.0228 0
102 1 17.7695 28.3561 0
103 1 26.2346 5.144 0
104 1 5.63228 22.0221 0
105 1 15.9614 19.6025 0
106 1 28.9563 9.79059 0
107 1 19.7647 1.97394 0
108 1 14.0317 18.7861 0
109 1 11.084 18.3533 0
110 1 12.4609 12.2522 0
111 1 16.6278 2.12682 0
112 1 15.0393 3.04327 0
113 1 10.4259 21.6454 0
114 1 5.92221 8.31579 0
115 1 3.9323 18.3809 0
116 1 8.8118 3.42783 0
117 1 29.1802 26.8651 0
118 1 11.4148 13.9765 0
119 1 23.9799 14.2036 0
120 1 17.1241 6.73158 0
121 1 1.52113 22.2178 0
122 1 8.43899 5.62346 0
123 1 7.67371 29.0287 0
124 1 11.8688 10.1129 0
125 1 29.7028 17.1465 0
126 1 4.11346 20.3809 0
127 1 5.89167 16.3687 0
128 1 29.8466 12.8897 0
129 1 11.5943 12.2667 0
130 1 5.12337 17.8493 0
131 1 20.1005 14.6475 0
132 1 8.08214 27.8515 0
133 1 29.7196 25.9435 0
134 1 19.5826 28.4837 0
135 1 15.0856 2.08995 0
136 1 14.6089 20.7904 0
137 1 29.0036 17.8162 0
138 1 0.0336119 17.8732 0
139 1 10.8739 9.78542 0
140 1 8.15319 29.8513 0
141 1 28.3571 18.8955 0
142 1 13.3697 7.48563 0
143 1 18.7789 27.8699 0
144 1 28.3297 28.5079 0
145 1 7.1996 20.5674 0
146 1 3.51212 12.397 0
147 1 1.89902 2.03008 0
148 1 12.3049 1.75296 0
149 1 2.57191 27.774 0
150 1 3.36513 5.94277 0
151 1 8.7657 29.1959 0
152 1 29.1005 13.5641 0
153 1 18.1012 4.80259 0
154 1 20.6582 28.1867 0
155 1 18.9695 5.15175 0
156 1 29.2177 11.9642 0
157 1 9.93697 18.4372 0
158 1 22.208 5.11417 0
159 1 12.4693 11.4188 0
160 1 6.22319 3.19012 0
161 1 13.0507 10.4261 0
162 1 24.1582 19.6353 0
163 1 10.0346 14.2831 0
164 1 27.287 28.3575 0
165 1 19.8836 25.1181 0
166 1 9.79422 8.20482 0
167 1 0.781397 21.5643 0
168 1 19.9631 24.1418 0
169 1 2.68154 13.3929 0
170 1 27.3868 18.9178 0
171 1 3.4461 14.4124 0
172 1 27.1915 27.5218 0
173 1 21.7777 9.20773 0
174 1 16.4248 24.5152 0
175 1 28.324 17.0497 0
176 1 27.1135 5.72206 0
177 1 26.9592 8.02192 0
178 1 11.1604 15.0645 0
179 1 26.0591 8.34559 0
180 1 6.00211 17.4027 0
181 1 2.44759 6.71609 0
182 1 28.1319 29.4 0
183 1 22.886 19.5971 0
184 1 26.1346 7.48538 0
185 1 27.9845 10.5182 0
186 1 20.9292 25.9001 0
187 1 27.3939 2.73567 0
188 1 23.7088 15.4214 0
189 1 28.3451 27.1714 0
190 1 26.0088 22.2335 0
191 1 21.5583 10.3998 0
192 1 13.1683 2.49583 0
193 1 10.554 8.69459 0
194 1 18.0593 20.4721 0
ITEM: TIMESTEP
180
ITEM: NUMBER OF ATOMS
194
ITEM: BOX BOUNDS pp pp pp
0.0000000000000000e+00 3.0000000000000000e+01
0.0000000000000000e+00 3.0000000000000000e+01
-5.0000000000000000e-01 5.0000000000000000e-01
ITEM: ATOMS id type x y z
1 1 26.476 10.1218 0
2 1 22.7873 14.1415 0
3 1 27.7786 25.9418 0
4 1 3.19012 20.5159 0
5 1 7.29767 5.19856 0
6 1 10.5906 15.9462 0
7 1 5.09646 8.8544 0
8 1 18.2431 10.2289 0
9 1 28.7606 25.7346 0
10 1 16.5846 5.37603 0
11 1 27.9231 9.55354 0
12 1 13.7507 2.26828 0
13 1 16.2381 3.11709 0
14 1 12.4491 7.98245 0
15 1 27.0294 6.73624 0
16 1 18.1493 11.3818 0
17 1 24.8603 6.64354 0
18 1 19.8374 26.1059 0
19 1 15.639 20.9309 0
20 1 6.24002 9.66137 0
21 1 13.1015 25.2856 0
22 1 11.7027 9.27068 0
23 1 4.46639 13.1364 0
24 1 1.65927 0.737134 0
25 1 19.9954 13.6734 0
26 1 2.4529 21.957 0
27 1 30.0274 14.5007 0
28 1 20.4685 9.67231 0
29 1 21.9752 29.3358 0
30 1 21.6043 24.8801 0
31 1 7.20472 22.3132 0
32 1 13.192 24.1363 0
33 1 13.7886 12.0242 0
34 1 0.515149 26.4354 0
35 1 13.9278 3.42678 0
36 1 17.7317 24.2034 0
37 1 27.8026 20.6305 0
38 1 15.528 18.8647 0
39 1 16.3159 0.896214 0
40 1 16.638 25.8071 0
41 1 27.2741 22.1525 0
42 1 1.02402 4.63784 0
43 1 7.9266 21.2187 0
44 1 11.8533 25.9705 0
45 1 2.03078 3.96048 0
46 1 5.47147 3.48014 0
47 1 14.3728 19.6775 0
48 1 10.483 26.6409 0
49 1 1.62867 5.51279 0
50 1 2.53496 24.7507 0
51 1 26.2135 19.1155 0
52 1 15.417 17.8224 0
53 1 16.2977 18.3459 0
54 1 20.343 23.6013 0
55 1 25.7986 23.2305 0
56 1 9.5759 2.00603 0
57 1 15.5136 25.4987 0
58 1 8.42166 4.4768 0
59 1 27.9192 18.107 0
60 1 20.9467 26.9025 0
61 1 26.8397 8.95003 0
62 1 22.535 2.39837 0
63 1 26.0525 6.39402 0
64 1 21.2473 2.02261 0
65 1 -0.0113678 22.204 0
66 1 9.45056 5.29691 0
67 1 15.0464 24.1198 0
68 1 5.04337 16.9479 0
69 1 13.8128 8.32273 0
70 1 4.75695 21.4646 0
71 1 4.54776 11.9908 0
72 1 2.49923 26.7399 0
73 1 6.28107 22.5148 0
74 1 25.3825 9.96857 0
75 1 1.18388 27.6571 0
76 1 23.3902 11.4472 0
77 1 5.37019 26.2049 0
78 1 11.9237 7.06049 0
79 1 9.53177 3.96592 0
80 1 6.28756 20.948 0
81 1 16.721 17.5216 0
82 1 14.1628 24.4829 0
83 1 4.44641 28.0069 0
84 1 14.0306 10.7389 0
85 1 2.51601 5.15826 0
86 1 16.0139 16.8588 0
87 1 14.7064 18.295 0
88 1 12.2245 24.5974 0
89 1 22.9752 20.8105 0
90 1 18.024 5.58953 0
91 1 3.04381 0.723196 0
92 1 15.5617 13.9565 0
93 1 12.6922 9.23059 0
94 1 21.9132 27.5812 0
95 1 1.66006 21.1151 0
96 1 12.8912 26.456 0
97 1 6.36437 0.339324 0
98 1 3.23375 27.3712 0
99 1 20.1077 27.338 0
100 1 17.4686 16.2172 0
101 1 12.0445 13.3994 0
102 1 17.6103 28.4434 0
103 1 26.439 5.19668 0
104 1 5.47279 21.7299 0
105 1 15.9437 19.6295 0
106 1 28.9712 9.41473 0
107 1 19.5771 2.13782 0
108 1 13.7012 18.6057 0
109 1 11.0615 18.2258 0
110 1 12.4674 12.6684 0
111 1 16.8513 2.327 0
112 1 14.9914 2.86465 0
113 1 10.767 21.6882 0
114 1 6.28683 8.51588 0
115 1 3.58961 17.7671 0
116 1 8.84016 3.3397 0
117 1 29.0573 26.7471 0
118 1 11.3645 14.0997 0
119 1 23.904 14.1972 0
120 1 16.9683 6.88164 0
121 1 1.29425 22.0954 0
122 1 8.18972 5.52759 0
123 1 7.69331 28.8377 0
124 1 11.8801 10.1999 0
125 1 29.5982 16.8398 0
126 1 4.19782 20.0189 0
127 1 5.77426 16.4196 0
128 1 29.6611 12.8373 0
129 1 11.3292 12.2677 0
130 1 5.42678 17.9517 0
131 1 19.7387 14.9848 0
132 1 8.02333 27.4799 0
133 1 29.689 25.8981 0
134 1 19.2146 28.5593 0
135 1 14.8559 1.82409 0
136 1 14.5482 20.736 0
137 1 28.9247 17.6484 0
138 1 0.0777496 18.1176 0
139 1 10.9127 9.80577 0
140 1 7.84137 29.8505 0
141 1 28.3694 18.945 0
142 1 13.1324 7.18555 0
143 1 18.5601 27.8774 0
144 1 28.7662 28.7051 0
145 1 7.48029 20.3649 0
146 1 3.51197 12.2527 0
147 1 1.60305 2.59695 0
148 1 12.2164 1.58802 0
149 1 2.5639 28.0571 0
150 1 3.16455 5.87495 0
151 1 8.9343 29.4868 0
152 1 29.1795 13.8152 0
153 1 18.1322 4.57674 0
154 1 20.4066 28.6318 0
155 1 19.0859 4.90966 0
156 1 29.5023 11.4799 0
157 1 9.86772 18.3165 0
158 1 21.962 5.09813 0
159 1 12.8723 11.5335 0
160 1 6.58946 3.52613 0
161 1 13.0972 10.5663 0
162 1 24.4957 19.8045 0
163 1 9.48652 14.0156 0
164 1 27.7347 28.179 0
165 1 19.741 25.2308 0
166 1 10.0808 8.05079 0
167 1 0.604665 21.4338 0
168 1 19.9024 24.3711 0
169 1 2.52785 13.3917 0
170 1 27.424 19.1529 0
171 1 3.81656 14.4206 0
172 1 26.9773 27.1395 0
173 1 22.1099 9.40626 0
174 1 16.5808 24.3226 0
175 1 28.0092 16.991 0
176 1 27.2313 5.75126 0
177 1 27.0858 8.09812 0
178 1 11.0698 14.939 0
179 1 26.0387 8.50744 0
180 1 6.20692 17.3388 0
181 1 2.08011 6.67245 0
182 1 28.4329 29.6978 0
183 1 22.9211 19.8572 0
184 1 26.3466 7.38077 0
185 1 27.9186 10.5786 0
186 1 21.0338 25.6937 0
187 1 27.6192 2.85137 0
188 1 23.6045 15.6405 0
189 1 28.1052 27.252 0
190 1 26.2861 22.3233 0
191 1 21.1861 10.741 0
192 1 12.9467 2.48946 0
193 1 10.8344 8.81088 0
194 1 18.0174 20.6479 0
ITEM: TIMESTEP
195
ITEM: NUMBER OF ATOMS
194
ITEM: BOX BOUNDS pp pp pp
0.0000000000000000e+00 3.0000000000000000e+01
0.0000000000000000e+00 3.0000000000000000e+01
-5.0000000000000000e-01 5.0000000000000000e-01
ITEM: ATOMS id type x y z
1 1 26.1133 10.3682 0
2 1 22.6842 13.8887 0
3 1 27.7642 25.69 0
4 1 3.31162 20.2639 0
5 1 6.90296 5.22849 0
6 1 10.8546 16.2225 0
7 1 4.78139 8.62609 0
8 1 18.488 10.1833 0
9 1 28.6578 25.3182 0
10 1 16.2668 5.27522 0
11 1 27.8598 9.37694 0
12 1 13.5636 2.18483 0
13 1 16.1776 3.35806 0
14 1 12.3932 7.86328 0
15 1 27.3138 6.74445 0
16 1 18.4857 11.3649 0
17 1 24.7543 5.83611 0
18 1 19.8489 26.3799 0
19 1 15.8943 21.1138 0
20 1 6.01863 10.1891 0
21 1 13.1312 25.1361 0
22 1 11.8977 9.32565 0
23 1 4.79848 13.0723 0
24 1 1.42774 0.825996 0
25 1 20.3235 13.4191 0
26 1 2.25333 21.9241 0
27 1 0.351336 14.9577 0
28 1 20.3131 9.59449 0
29 1 22.139 29.8335 0
30 1 22.0733 25.0345 0
31 1 7.00249 21.993 0
32 1 13.413 23.8242 0
33 1 14.0853 12.4442 0
34 1 0.774729 26.4668 0
35 1 13.9043 3.45271 0
36 1 18.1793 23.832 0
37 1 27.8044 21.1358 0
38 1 15.5866 18.9378 0
39 1 16.6365 0.779447 0
40 1 16.3013 26.3204 0
41 1 27.6828 21.883 0
42 1 0.778402 4.75786 0
43 1 8.37744 21.0849 0
44 1 12.1098 26.1074 0
45 1 2.05071 3.5742 0
46 1 5.83361 3.6898 0
47 1 14.0511 19.5798 0
48 1 10.5548 26.7893 0
49 1 1.75193 5.81152 0
50 1 2.7409 24.2839 0
51 1 25.9042 18.7172 0
52 1 15.4252 17.8829 0
53 1 16.3448 18.3076 0
54 1 20.4216 23.6549 0
55 1 25.7038 23.2287 0
56 1 9.30652 2.36903 0
57 1 15.2734 25.3865 0
58 1 8.03855 4.30603 0
59 1 27.7948 18.3648 0
60 1 21.3084 26.9991 0
61 1 26.8262 9.1599 0
62 1 22.9273 2.71695 0
63 1 25.8569 6.39405 0
64 1 21.4765 2.39583 0
65 1 29.5265 22.0113 0
66 1 9.46345 5.64889 0
67 1 15.1216 23.6194 0
68 1 4.87223 16.9518 0
69 1 13.9521 8.04251 0
70 1 4.58448 21.0267 0
71 1 4.77426 11.4532 0
72 1 2.42816 26.8044 0
73 1 6.14953 22.6658 0
74 1 24.9697 10.2165 0
75 1 0.963937 27.9957 0
76 1 22.8251 11.4207 0
77 1 5.06147 26.5647 0
78 1 11.5303 7.01466 0
79 1 9.58175 3.753 0
80 1 6.45846 20.473 0
81 1 16.8734 17.4331 0
82 1 14.203 24.2866 0
83 1 5.03671 27.9041 0
84 1 14.1162 10.9168 0
85 1 2.64331 4.76085 0
86 1 16.0494 16.7245 0
87 1 14.4427 18.5561 0
88 1 12.1219 24.4426 0
89 1 22.7487 21.1427 0
90 1 17.9613 5.37214 0
91 1 3.05953 0.455391 0
92 1 16.0866 14.0556 0
93 1 12.8004 9.17357 0
94 1 21.9898 27.6737 0
95 1 1.49859 21.0187 0
96 1 13.6067 26.78 0
97 1 5.85208 0.509637 0
98 1 3.2831 27.5296 0
99 1 19.9244 27.5437 0
100 1 17.7037 16.0762 0
101 1 12.2828 13.8904 0
102 1 17.4506 28.5324 0
103 1 26.5757 5.20974 0
104 1 5.95481 21.7465 0
105 1 16.0603 19.9164 0
106 1 29.0032 9.03967 0
107 1 19.391 2.30154 0
108 1 13.329 18.4556 0
109 1 11.0343 18.0986 0
110 1 12.719 12.7952 0
111 1 17.142 2.41742 0
112 1 14.9442 2.72391 0
113 1 11.1082 21.7309 0
114 1 6.6579 8.69333 0
115 1 3.2492 17.1528 0
116 1 8.75988 3.16176 0
117 1 29.0386 26.6462 0
118 1 11.2521 14.1192 0
119 1 23.8279 14.1936 0
120 1 16.8129 7.02822 0
121 1 1.15249 22.0742 0
122 1 8.05669 5.486 0
123 1 7.68671 28.558 0
124 1 11.9421 10.4098 0
125 1 29.4881 16.456 0
126 1 4.28307 19.6598 0
127 1 5.79763 16.3286 0
128 1 29.4815 12.7738 0
129 1 10.9948 12.2203 0
130 1 5.68916 18.2006 0
131 1 19.386 15.3508 0
132 1 7.96372 27.1124 0
133 1 29.7868 25.7662 0
134 1 18.9333 28.7146 0
135 1 14.6978 1.50304 0
136 1 14.378 20.6852 0
137 1 28.8346 17.5089 0
138 1 0.143843 18.4165 0
139 1 10.8509 9.92205 0
140 1 7.51549 29.9652 0
141 1 28.5678 19.0565 0
142 1 12.903 6.87727 0
143 1 18.2632 27.801 0
144 1 29.2344 28.776 0
145 1 7.69823 20.0408 0
146 1 3.41766 12.1182 0
147 1 1.29335 3.15146 0
148 1 12.1307 1.42583 0
149 1 2.45692 28.4276 0
150 1 3.00795 5.86028 0
151 1 9.14143 29.7481 0
152 1 29.1567 13.9979 0
153 1 18.037 4.26985 0
154 1 20.1514 29.0714 0
155 1 19.327 4.71696 0
156 1 29.7868 10.9989 0
157 1 9.80326 18.1953 0
158 1 21.716 5.08208 0
159 1 13.2577 11.6391 0
160 1 6.95721 3.86345 0
161 1 13.0384 10.6284 0
162 1 24.8308 19.9741 0
163 1 8.9402 13.7489 0
164 1 28.1881 28.2136 0
165 1 19.4776 25.395 0
166 1 10.2767 7.82348 0
167 1 0.382898 21.1485 0
168 1 19.7626 24.4812 0
169 1 2.3779 13.3895 0
170 1 27.3293 19.4068 0
171 1 4.18722 14.4245 0
172 1 26.7513 26.6984 0
173 1 22.4395 9.60702 0
174 1 16.71 24.1314 0
175 1 27.7183 16.8406 0
176 1 27.4215 5.77809 0
177 1 27.3613 7.81899 0
178 1 10.8474 15.1842 0
179 1 25.845 8.70175 0
180 1 6.48693 17.2641 0
181 1 1.71959 6.65904 0
182 1 28.699 30.1171 0
183 1 22.9493 20.023 0
184 1 26.4506 7.26618 0
185 1 27.8529 10.7715 0
186 1 21.1028 25.4607 0
187 1 27.8444 2.96707 0
188 1 23.5001 15.8554 0
189 1 27.7802 27.2185 0
190 1 26.4866 22.3901 0
191 1 20.8123 11.0769 0
192 1 12.3174 2.59333 0
193 1 11.0656 8.88019 0
194 1 17.9754 20.8236 0
ITEM: TIMESTEP
210
ITEM: NUMBER OF ATOMS
194
ITEM: BOX BOUNDS pp pp pp
0.0000000000000000e+00 3.0000000000000000e+01
0.0000000000000000e+00 3.0000000000000000e+01
-5.0000000000000000e-01 5.0000000000000000e-01
ITEM: ATOMS id type x y z
1 1 25.7509 10.6099 0
2 1 22.585 13.6374 0
3 1 27.5341 25.5165 0
4 1 3.43668 20.0129 0
5 1 6.5078 5.25078 0
6 1 11.1205 16.5175 0
7 1 4.46776 8.39818 0
8 1 18.7335 10.1418 0
9 1 28.7728 24.8344 0
10 1 15.9509 5.17445 0
11 1 27.8182 9.20241 0
12 1 13.3984 2.09947 0
13 1 16.1158 3.596 0
14 1 12.3339 7.75125 0
15 1 27.6437 6.72866 0
16 1 18.8223 11.3435 0
17 1 24.6529 5.0305 0
18 1 19.8921 26.7761 0
19 1 16.148 21.2928 0
20 1 5.80152 10.7133 0
21 1 13.1589 24.9811 0
22 1 12.1041 9.48982 0
23 1 5.12808 13.0078 0
24 1 1.19764 0.914739 0
25 1 20.6515 13.1651 0
26 1 2.05328 21.8869 0
27 1 0.672467 15.4139 0
28 1 20.1582 9.51894 0
29 1 22.3025 0.330794 0
30 1 22.5666 25.1699 0
31 1 7.18401 21.7107 0
32 1 13.4606 23.4268 0
33 1 14.378 12.8613 0
34 1 1.03388 26.4999 0
35 1 13.8832 3.47022 0
36 1 18.6255 23.4619 0
37 1 27.9359 20.8298 0
38 1 15.53 19.0252 0
39 1 16.9572 0.663896 0
40 1 15.9617 26.8312 0
41 1 27.9592 22.4252 0
42 1 0.537487 4.8783 0
43 1 8.82583 20.9514 0
44 1 12.3695 26.2417 0
45 1 2.24605 3.29639 0
46 1 6.18794 3.89806 0
47 1 13.7044 19.5274 0
48 1 10.6278 26.9372 0
49 1 1.88215 5.792 0
50 1 2.94681 23.8172 0
51 1 25.5967 18.3205 0
52 1 15.4246 17.8975 0
53 1 16.4849 18.2555 0
54 1 20.5204 23.6796 0
55 1 25.6094 23.2274 0
56 1 9.24131 2.49586 0
57 1 15.0342 25.2732 0
58 1 8.02908 4.23178 0
59 1 27.6411 18.582 0
60 1 21.5946 27.0139 0
61 1 26.8177 9.38645 0
62 1 23.3169 3.03491 0
63 1 25.6547 6.37381 0
64 1 21.708 2.76968 0
65 1 29.0658 21.8176 0
66 1 9.47242 5.9994 0
67 1 15.2019 23.1188 0
68 1 4.68385 16.972 0
69 1 14.0865 7.76168 0
70 1 4.35436 20.5609 0
71 1 4.99426 10.9199 0
72 1 2.3499 26.8661 0
73 1 6.01258 22.9121 0
74 1 24.5603 10.4637 0
75 1 0.745223 28.3326 0
76 1 22.2598 11.3933 0
77 1 4.75269 26.9283 0
78 1 11.1428 6.97151 0
79 1 9.68764 3.58468 0
80 1 6.63256 20.0018 0
81 1 17.0552 17.3161 0
82 1 14.4074 24.1874 0
83 1 5.6256 27.7974 0
84 1 14.2231 11.0879 0
85 1 2.76291 4.35508 0
86 1 16.0741 16.5871 0
87 1 14.1874 18.7842 0
88 1 12.0267 24.2907 0
89 1 22.5224 21.4826 0
90 1 17.8989 5.15888 0
91 1 3.07368 0.187508 0
92 1 16.6116 14.1548 0
93 1 13.0768 9.08468 0
94 1 22.138 27.8455 0
95 1 1.34096 20.9226 0
96 1 14.3205 27.1015 0
97 1 5.34081 0.67959 0
98 1 3.33918 27.6926 0
99 1 19.7398 27.7541 0
100 1 17.9381 15.9366 0
101 1 12.5006 14.4364 0
102 1 17.2903 28.6245 0
103 1 26.6753 5.20365 0
104 1 6.1161 21.6458 0
105 1 16.2063 20.2674 0
106 1 29.0315 8.66604 0
107 1 19.205 2.46547 0
108 1 12.9579 18.3099 0
109 1 11.0018 17.971 0
110 1 13.0057 12.8559 0
111 1 17.4303 2.50912 0
112 1 14.893 2.58286 0
113 1 11.4493 21.7737 0
114 1 7.02734 8.87276 0
115 1 2.91027 16.5383 0
116 1 8.41463 3.18145 0
117 1 29.0159 26.5421 0
118 1 11.1797 14.0043 0
119 1 23.7476 14.1901 0
120 1 16.6576 7.17367 0
121 1 1.00677 22.0567 0
122 1 7.92957 5.44203 0
123 1 7.68094 28.2788 0
124 1 11.9972 10.6291 0
125 1 29.376 16.0753 0
126 1 4.36762 19.3054 0
127 1 5.84045 16.225 0
128 1 29.3009 12.7138 0
129 1 10.6623 12.1738 0
130 1 5.95079 18.4452 0
131 1 19.0323 15.7167 0
132 1 7.90355 26.7478 0
133 1 29.8821 25.6353 0
134 1 18.6618 28.8757 0
135 1 14.5368 1.18851 0
136 1 14.2101 20.6322 0
137 1 28.7405 17.3694 0
138 1 0.206675 18.7142 0
139 1 10.7864 10.0665 0
140 1 7.19083 0.0769194 0
141 1 28.7974 19.2035 0
142 1 12.6729 6.56868 0
143 1 17.9649 27.715 0
144 1 29.6982 28.8466 0
145 1 7.91203 19.7194 0
146 1 3.32606 11.9848 0
147 1 0.809048 3.60464 0
148 1 12.0469 1.26806 0
149 1 2.34791 28.796 0
150 1 2.85188 5.85204 0
151 1 9.34599 30.0092 0
152 1 29.137 14.1779 0
153 1 17.9445 3.95849 0
154 1 19.8912 29.5072 0
155 1 19.563 4.52434 0
156 1 0.0705416 10.5185 0
157 1 9.74422 18.0736 0
158 1 21.4699 5.06601 0
159 1 13.6315 11.7992 0
160 1 6.96259 4.11124 0
161 1 12.973 10.6475 0
162 1 25.1659 20.1428 0
163 1 8.39414 13.4823 0
164 1 28.6488 28.3673 0
165 1 19.1537 25.5676 0
166 1 10.4764 7.60007 0
167 1 0.159397 20.8635 0
168 1 19.6378 24.4895 0
169 1 2.22935 13.3864 0
170 1 27.2352 19.6587 0
171 1 4.55872 14.4257 0
172 1 26.5311 26.2566 0
173 1 22.7687 9.80872 0
174 1 16.8401 23.94 0
175 1 27.4323 16.6952 0
176 1 27.6536 5.75219 0
177 1 27.648 7.60686 0
178 1 10.5728 15.5496 0
179 1 25.6269 8.88164 0
180 1 6.76375 17.1905 0
181 1 1.35377 6.95805 0
182 1 28.966 0.532966 0
183 1 22.9782 20.1809 0
184 1 26.4942 7.20315 0
185 1 27.7866 10.9604 0
186 1 21.1422 25.2492 0
187 1 28.0696 3.08277 0
188 1 23.3959 16.0688 0
189 1 27.453 27.0616 0
190 1 26.6907 22.4547 0
191 1 20.4381 11.4107 0
192 1 11.6732 2.6985 0
193 1 11.1204 8.82624 0
194 1 17.9327 20.9993 0
ITEM: TIMESTEP
225
ITEM: NUMBER OF ATOMS
194
ITEM: BOX BOUNDS pp pp pp
0.0000000000000000e+00 3.0000000000000000e+01
0.0000000000000000e+00 3.0000000000000000e+01
-5.0000000000000000e-01 5.0000000000000000e-01
ITEM: ATOMS id type x y z
1 1 25.3851 10.8485 0
2 1 22.4898 13.3879 0
3 1 27.3029 25.3473 0
4 1 3.45669 19.6955 0
5 1 6.11819 5.26498 0
6 1 11.3872 16.8223 0
7 1 4.15422 8.17033 0
8 1 18.9818 10.1045 0
9 1 28.8895 24.3552 0
10 1 15.6361 5.07187 0
11 1 27.8116 9.02168 0
12 1 13.236 2.01516 0
13 1 16.0538 3.83403 0
14 1 12.2732 7.63687 0
15 1 27.9687 6.56185 0
16 1 19.1604 11.3172 0
17 1 24.5528 4.22585 0
18 1 19.9477 27.1101 0
19 1 16.4012 21.5176 0
20 1 6.05007 11.1837 0
21 1 13.1846 24.8226 0
22 1 12.2609 9.67377 0
23 1 5.4565 12.9448 0
24 1 0.967784 1.00318 0
25 1 20.9798 12.9101 0
26 1 1.86467 21.8435 0
27 1 0.991043 15.8709 0
28 1 20.0012 9.4452 0
29 1 22.4659 0.828044 0
30 1 23.0567 25.3058 0
31 1 7.72521 21.4773 0
32 1 13.5028 23.0294 0
33 1 14.6637 13.2736 0
34 1 1.29335 26.5328 0
35 1 13.8646 3.48166 0
36 1 19.0737 23.0944 0
37 1 28.0724 20.4835 0
38 1 15.4715 19.1139 0
39 1 17.278 0.548524 0
40 1 15.705 27.3293 0
41 1 28.2296 23.004 0
42 1 0.298866 4.99927 0
43 1 9.27187 20.8163 0
44 1 12.6304 26.3737 0
45 1 2.45332 3.02459 0
46 1 5.87288 3.91112 0
47 1 13.2389 19.67 0
48 1 10.7014 27.0849 0
49 1 1.87817 5.73648 0
50 1 3.15259 23.3501 0
51 1 25.2896 17.9246 0
52 1 15.4208 17.9095 0
53 1 16.6233 18.2102 0
54 1 20.6165 23.7078 0
55 1 25.5185 23.2234 0
56 1 9.31931 2.47028 0
57 1 14.7929 25.1572 0
58 1 8.4735 4.28688 0
59 1 27.4905 18.8017 0
60 1 21.8304 26.9635 0
61 1 26.7733 9.61573 0
62 1 23.7052 3.35288 0
63 1 25.4557 6.35254 0
64 1 21.9411 3.14391 0
65 1 28.6024 21.6222 0
66 1 9.4807 6.35001 0
67 1 15.2795 22.6219 0
68 1 4.49873 16.9906 0
69 1 14.2185 7.48143 0
70 1 4.2327 20.1544 0
71 1 4.74819 10.4409 0
72 1 2.27171 26.9306 0
73 1 5.87735 23.1603 0
74 1 24.1551 10.7107 0
75 1 0.760329 28.5409 0
76 1 21.694 11.3652 0
77 1 4.44479 27.2961 0
78 1 10.9953 6.66333 0
79 1 9.78973 3.41361 0
80 1 6.81046 19.5303 0
81 1 17.2361 17.1907 0
82 1 14.6187 24.0923 0
83 1 6.21196 27.6875 0
84 1 14.4128 11.1493 0
85 1 2.88081 3.95167 0
86 1 16.1018 16.456 0
87 1 14.0548 18.8173 0
88 1 11.9368 24.1409 0
89 1 22.2973 21.8189 0
90 1 17.8369 4.94082 0
91 1 3.08632 -0.0822292 0
92 1 17.1367 14.2541 0
93 1 13.4017 8.98068 0
94 1 22.3346 28.0814 0
95 1 1.181 20.8341 0
96 1 14.951 27.4344 0
97 1 4.82988 0.849341 0
98 1 3.39163 27.8539 0
99 1 19.5408 28.0258 0
100 1 17.9597 15.7843 0
101 1 12.716 14.98 0
102 1 17.1342 28.7166 0
103 1 26.7714 5.19891 0
104 1 5.91665 21.4912 0
105 1 16.3516 20.5694 0
106 1 29.0543 8.29371 0
107 1 19.0176 2.63015 0
108 1 12.5921 18.1684 0
109 1 10.9648 17.8408 0
110 1 13.2977 12.9142 0
111 1 17.7193 2.60347 0
112 1 14.8372 2.44206 0
113 1 11.7905 21.8165 0
114 1 7.39655 9.05244 0
115 1 2.57194 15.9239 0
116 1 7.92654 3.3424 0
117 1 28.9946 26.4337 0
118 1 11.1094 13.8914 0
119 1 23.6626 14.1851 0
120 1 16.5023 7.31874 0
121 1 0.845434 22.0351 0
122 1 7.79996 5.39098 0
123 1 7.675 27.9983 0
124 1 11.9794 10.8448 0
125 1 29.2643 15.6956 0
126 1 4.44982 18.9581 0
127 1 5.88292 16.1267 0
128 1 29.1199 12.6564 0
129 1 10.3303 12.1272 0
130 1 6.21375 18.6887 0
131 1 18.89 16.0967 0
132 1 7.843 26.3854 0
133 1 29.973 25.5077 0
134 1 18.3894 29.0328 0
135 1 14.3742 0.879228 0
136 1 14.0409 20.5738 0
137 1 28.6446 17.2279 0
138 1 0.266458 19.0129 0
139 1 10.7306 10.2078 0
140 1 6.86619 0.18799 0
141 1 29.0245 19.3488 0
142 1 12.4399 6.26566 0
143 1 17.6693 27.6332 0
144 1 29.9276 29.0454 0
145 1 8.12234 19.4011 0
146 1 3.23473 11.8519 0
147 1 0.313224 4.05421 0
148 1 11.9642 1.11417 0
149 1 2.24067 29.1634 0
150 1 2.83149 5.85274 0
151 1 9.55015 0.270276 0
152 1 29.1182 14.3561 0
153 1 17.852 3.64922 0
154 1 19.6275 29.9402 0
155 1 19.7973 4.33149 0
156 1 0.353984 10.0381 0
157 1 9.69067 17.9512 0
158 1 21.2233 5.04962 0
159 1 13.9167 12.0732 0
160 1 7.18597 4.45449 0
161 1 12.9811 10.666 0
162 1 25.5014 20.3108 0
163 1 7.84809 13.2157 0
164 1 29.1108 28.52 0
165 1 18.8313 25.7451 0
166 1 10.4429 7.64673 0
167 1 -0.0607117 20.583 0
168 1 19.5153 24.4918 0
169 1 2.08141 13.3825 0
170 1 27.1451 19.9102 0
171 1 4.93118 14.4248 0
172 1 26.3183 25.8155 0
173 1 23.0984 10.0119 0
174 1 16.97 23.7482 0
175 1 27.1493 16.5518 0
176 1 27.8866 5.6193 0
177 1 27.9342 7.65717 0
178 1 10.2979 15.9067 0
179 1 25.4134 9.06414 0
180 1 7.03558 17.1159 0
181 1 0.985439 7.27886 0
182 1 29.2336 0.94788 0
183 1 23.006 20.3426 0
184 1 26.5415 7.13864 0
185 1 27.72 11.1475 0
186 1 21.1823 25.0369 0
187 1 28.2949 3.19847 0
188 1 23.2917 16.2815 0
189 1 27.1247 26.8999 0
190 1 26.8967 22.5213 0
191 1 20.0628 11.7445 0
192 1 11.0302 2.80065 0
193 1 11.1726 8.7711 0
194 1 17.8886 21.1749 0
ITEM: TIMESTEP
240
ITEM: NUMBER OF ATOMS
194
ITEM: BOX BOUNDS pp pp pp
0.0000000000000000e+00 3.0000000000000000e+01
0.0000000000000000e+00 3.0000000000000000e+01
-5.0000000000000000e-01 5.0000000000000000e-01
ITEM: ATOMS id type x y z
1 1 25.0146 11.0852 0
2 1 22.3954 13.1394 0
3 1 27.0818 25.1768 0
4 1 3.23165 19.2277 0
5 1 5.73225 5.27257 0
6 1 11.6637 17.1112 0
7 1 3.84071 7.94259 0
8 1 19.2289 10.0757 0
9 1 29.0944 23.9631 0
10 1 15.3229 4.96523 0
11 1 27.8074 8.83654 0
12 1 13.0751 1.93055 0
13 1 15.991 4.0754 0
14 1 12.2106 7.52005 0
15 1 28.2996 6.4868 0
16 1 19.3929 11.1929 0
17 1 24.8719 3.65085 0
18 1 20.0213 27.393 0
19 1 16.6594 21.8455 0
20 1 6.37456 11.655 0
21 1 13.21 24.6626 0
22 1 12.4172 9.86087 0
23 1 5.78466 12.8828 0
24 1 0.736651 1.0912 0
25 1 21.3091 12.6524 0
26 1 1.69628 21.7915 0
27 1 1.31042 16.3275 0
28 1 19.8462 9.36904 0
29 1 22.6293 1.32542 0
30 1 23.5458 25.4419 0
31 1 8.26613 21.2429 0
32 1 13.5468 22.6344 0
33 1 14.944 13.6817 0
34 1 1.4937 26.5352 0
35 1 13.8479 3.48898 0
36 1 19.5238 22.73 0
37 1 28.2164 20.1398 0
38 1 15.4124 19.1967 0
39 1 17.5994 0.431983 0
40 1 16.4148 27.6906 0
41 1 28.4103 23.4939 0
42 1 0.0738663 5.29825 0
43 1 9.71616 20.681 0
44 1 12.8915 26.5042 0
45 1 2.64146 2.71091 0
46 1 5.46587 3.89875 0
47 1 12.7669 19.8281 0
48 1 10.7753 27.2325 0
49 1 1.726 5.66599 0
50 1 3.35811 22.8828 0
51 1 24.9828 17.5288 0
52 1 15.4219 17.9266 0
53 1 16.7565 18.1616 0
54 1 20.7091 23.7411 0
55 1 25.4297 23.2184 0
56 1 9.38672 2.42688 0
57 1 14.5501 25.0479 0
58 1 8.91505 4.36329 0
59 1 27.341 19.0258 0
60 1 22.0662 26.9144 0
61 1 26.7267 9.84369 0
62 1 23.6734 3.44131 0
63 1 25.261 6.33301 0
64 1 22.175 3.51849 0
65 1 28.1364 21.4244 0
66 1 9.49145 6.70192 0
67 1 15.3576 22.1256 0
68 1 4.31496 17.0088 0
69 1 14.3494 7.20207 0
70 1 4.36115 19.8904 0
71 1 4.42568 9.96206 0
72 1 2.25383 27.0277 0
73 1 5.74227 23.4068 0
74 1 23.7712 10.9812 0
75 1 1.17487 28.5258 0
76 1 21.1268 11.3386 0
77 1 4.16791 27.649 0
78 1 10.9515 6.22922 0
79 1 9.81104 3.31896 0
80 1 7.1928 19.2479 0
81 1 17.412 17.0646 0
82 1 14.8274 23.9878 0
83 1 6.79659 27.5769 0
84 1 14.6261 11.1706 0
85 1 3.01732 3.59126 0
86 1 16.1332 16.3294 0
87 1 13.9342 18.8372 0
88 1 11.8506 23.9924 0
89 1 22.0729 22.1536 0
90 1 17.7748 4.71724 0
91 1 3.11035 29.6519 0
92 1 17.6622 14.355 0
93 1 13.7229 8.87808 0
94 1 22.5307 28.3155 0
95 1 1.0173 20.7535 0
96 1 14.6163 27.9046 0
97 1 4.31883 1.01878 0
98 1 3.41069 28.0296 0
99 1 19.3211 28.3496 0
100 1 17.6613 15.592 0
101 1 12.9308 15.523 0
102 1 16.9845 28.8057 0
103 1 26.8714 5.1974 0
104 1 5.71837 21.3378 0
105 1 16.4931 20.7686 0
106 1 29.0807 7.92399 0
107 1 18.8389 2.79897 0
108 1 12.2264 18.0278 0
109 1 10.9124 17.7257 0
110 1 13.5615 13.0109 0
111 1 18.0072 2.57042 0
112 1 14.7777 2.30238 0
113 1 12.1321 21.8596 0
114 1 7.76575 9.23216 0
115 1 2.23173 15.3099 0
116 1 7.43629 3.4883 0
117 1 28.9758 26.3222 0
118 1 11.0395 13.7786 0
119 1 23.5747 14.1785 0
120 1 16.3467 7.46372 0
121 1 0.661668 22.0117 0
122 1 7.76502 5.5166 0
123 1 7.66996 27.7164 0
124 1 11.9155 11.0594 0
125 1 29.1544 15.3348 0
126 1 4.52813 18.6182 0
127 1 5.9256 16.0306 0
128 1 28.9386 12.6 0
129 1 9.99886 12.0805 0
130 1 6.27688 18.7422 0
131 1 19.0654 16.5174 0
132 1 7.78204 26.0249 0
133 1 0.0604801 25.3828 0
134 1 18.1144 29.1874 0
135 1 14.2106 0.572783 0
136 1 13.8689 20.5105 0
137 1 28.5476 17.0851 0
138 1 0.321458 19.3152 0
139 1 10.6805 10.348 0
140 1 6.54138 0.298993 0
141 1 29.2525 19.4954 0
142 1 12.2039 5.96751 0
143 1 17.3726 27.5573 0
144 1 29.8528 29.5619 0
145 1 8.32811 19.084 0
146 1 3.14337 11.7194 0
147 1 29.8048 4.32626 0
148 1 11.8829 0.962063 0
149 1 2.12115 29.525 0
150 1 2.95773 5.86794 0
151 1 9.7543 0.531597 0
152 1 29.0982 14.5158 0
153 1 17.7514 3.46921 0
154 1 19.3617 0.371247 0
155 1 20.0323 4.13903 0
156 1 0.637286 9.55747 0
157 1 9.64251 17.8281 0
158 1 20.9751 5.03191 0
159 1 14.2082 12.3508 0
160 1 7.41281 4.64483 0
161 1 13.0345 10.6778 0
162 1 25.8383 20.4783 0
163 1 7.3018 12.949 0
164 1 29.4794 28.5792 0
165 1 18.5113 25.9206 0
166 1 10.31 7.82195 0
167 1 29.7231 20.3025 0
168 1 19.3946 24.4923 0
169 1 1.93382 13.3783 0
170 1 27.0519 20.158 0
171 1 5.30454 14.4224 0
172 1 26.099 25.3808 0
173 1 23.4122 10.1924 0
174 1 17.0996 23.5559 0
175 1 26.8679 16.4092 0
176 1 28.107 5.36474 0
177 1 28.2105 7.73873 0
178 1 10.0256 16.2665 0
179 1 25.2026 9.24877 0
180 1 7.305 17.0407 0
181 1 0.617472 7.59857 0
182 1 29.5026 1.36235 0
183 1 23.0333 20.5057 0
184 1 26.5906 7.0712 0
185 1 27.653 11.3338 0
186 1 21.221 24.8217 0
187 1 28.5204 3.31431 0
188 1 23.1877 16.494 0
189 1 26.7946 26.7327 0
190 1 27.1045 22.5897 0
191 1 19.7953 12.1718 0
192 1 10.4747 2.84578 0
193 1 11.2258 8.7156 0
194 1 17.8407 21.3507 0
ITEM: TIMESTEP
255
ITEM: NUMBER OF ATOMS
194
ITEM: BOX BOUNDS pp pp pp
0.0000000000000000e+00 3.0000000000000000e+01
0.0000000000000000e+00 3.0000000000000000e+01
-5.0000000000000000e-01 5.0000000000000000e-01
ITEM: ATOMS id type x y z
1 1 24.6385 11.3202 0
2 1 22.3192 12.903 0
3 1 26.9004 25.0003 0
4 1 3.00787 18.7572 0
5 1 5.34708 5.27599 0
6 1 11.9029 17.1048 0
7 1 3.52722 7.71497 0
8 1 19.3942 10.1338 0
9 1 29.8159 24.0148 0
10 1 15.0073 4.8598 0
11 1 27.8019 8.65202 0
12 1 12.9146 1.84496 0
13 1 15.9312 4.31505 0
14 1 12.146 7.40253 0
15 1 28.6308 6.42558 0
16 1 19.5565 11.0039 0
17 1 25.6166 3.29325 0
18 1 20.0942 27.6759 0
19 1 16.9197 22.1904 0
20 1 6.6573 12.0012 0
21 1 13.2376 24.5025 0
22 1 12.5369 10.0063 0
23 1 6.06047 12.827 0
24 1 0.506567 1.1758 0
25 1 21.6192 12.3791 0
26 1 1.54029 21.7321 0
27 1 1.63212 16.7819 0
28 1 19.7703 9.18862 0
29 1 22.7928 1.82318 0
30 1 24.0347 25.5782 0
31 1 8.8089 21.0074 0
32 1 13.5898 22.2392 0
33 1 15.221 14.0866 0
34 1 1.5305 26.4381 0
35 1 13.8328 3.49363 0
36 1 19.9752 22.3679 0
37 1 28.3627 19.7975 0
38 1 15.3521 19.2736 0
39 1 17.9229 0.313926 0
40 1 16.6015 28.1799 0
41 1 28.0729 23.5396 0
42 1 29.8677 5.72051 0
43 1 10.1583 20.5463 0
44 1 13.1529 26.6341 0
45 1 2.79315 2.31197 0
46 1 5.06029 3.89017 0
47 1 12.3007 19.9867 0
48 1 10.8494 27.3799 0
49 1 1.57327 5.59551 0
50 1 3.56338 22.4153 0
51 1 24.6758 17.1327 0
52 1 15.427 17.9493 0
53 1 16.8868 18.108 0
54 1 20.7974 23.7728 0
55 1 25.3419 23.2132 0
56 1 9.43591 2.34488 0
57 1 14.3034 24.9425 0
58 1 9.34773 4.46521 0
59 1 27.1933 19.2564 0
60 1 22.3028 26.8677 0
61 1 26.6813 10.0701 0
62 1 23.2143 3.31208 0
63 1 25.0689 6.31443 0
64 1 22.4101 3.8934 0
65 1 27.6684 21.222 0
66 1 9.50621 7.05617 0
67 1 15.4397 21.6282 0
68 1 4.13201 17.0285 0
69 1 14.4801 6.92349 0
70 1 4.49257 19.6225 0
71 1 4.10307 9.48321 0
72 1 2.40072 27.2268 0
73 1 5.60712 23.6529 0
74 1 23.4959 11.4656 0
75 1 1.59042 28.5135 0
76 1 20.5571 11.3166 0
77 1 4.19398 27.8496 0
78 1 10.9099 5.79689 0
79 1 9.31135 3.60163 0
80 1 7.75185 19.1445 0
81 1 17.5838 16.9388 0
82 1 15.0351 23.8779 0
83 1 6.93073 27.4037 0
84 1 14.8365 11.1959 0
85 1 3.19044 3.3162 0
86 1 16.168 16.2051 0
87 1 13.8142 18.86 0
88 1 11.7668 23.8447 0
89 1 21.8485 22.4882 0
90 1 17.7124 4.49058 0
91 1 3.17181 29.3931 0
92 1 18.1876 14.4601 0
93 1 14.0425 8.776 0
94 1 22.7258 28.5467 0
95 1 0.849892 20.6788 0
96 1 14.271 28.376 0
97 1 3.80728 1.1878 0
98 1 3.12356 28.3582 0
99 1 19.0995 28.6751 0
100 1 17.3628 15.3995 0
101 1 13.1452 16.0663 0
102 1 16.8608 28.958 0
103 1 26.9765 5.19781 0
104 1 5.51991 21.1845 0
105 1 16.6345 20.9526 0
106 1 29.3433 7.58742 0
107 1 18.9309 3.06474 0
108 1 11.9393 18.1399 0
109 1 10.8128 17.6528 0
110 1 13.7284 13.2119 0
111 1 18.0562 2.22567 0
112 1 14.7156 2.16392 0
113 1 12.4758 21.9034 0
114 1 8.13494 9.41188 0
115 1 1.88897 14.6974 0
116 1 6.94489 3.63154 0
117 1 28.9591 26.2084 0
118 1 10.9694 13.6654 0
119 1 23.4852 14.1706 0
120 1 16.1907 7.60862 0
121 1 0.463813 21.9862 0
122 1 7.89562 5.98043 0
123 1 8.11576 27.4953 0
124 1 11.8517 11.2671 0
125 1 29.0748 15.4522 0
126 1 4.60348 18.2832 0
127 1 5.9683 15.9344 0
128 1 28.7567 12.5437 0
129 1 9.66807 12.0335 0
130 1 6.13949 18.6247 0
131 1 19.2385 16.9376 0
132 1 7.72067 25.6661 0
133 1 0.145169 25.2591 0
134 1 17.8372 29.3397 0
135 1 14.0465 0.267819 0
136 1 13.6931 20.4436 0
137 1 28.4501 16.9413 0
138 1 0.388996 19.6164 0
139 1 10.6345 10.4893 0
140 1 6.21642 0.410035 0
141 1 29.2971 19.3051 0
142 1 11.9638 5.67247 0
143 1 17.5888 27.2916 0
144 1 29.8349 30.1509 0
145 1 8.5575 18.7582 0
146 1 3.05194 11.5869 0
147 1 29.2759 4.47484 0
148 1 11.8032 0.811465 0
149 1 1.96228 29.875 0
150 1 3.08326 5.88292 0
151 1 9.95862 0.793644 0
152 1 29.0476 14.1975 0
153 1 17.6187 3.50736 0
154 1 19.0937 0.801177 0
155 1 20.2698 3.94901 0
156 1 0.920315 9.07593 0
157 1 9.59963 17.703 0
158 1 20.7241 5.01066 0
159 1 14.601 12.5222 0
160 1 7.47871 4.4992 0
161 1 13.1225 10.735 0
162 1 26.1611 20.65 0
163 1 6.84895 12.8027 0
164 1 29.7944 28.5667 0
165 1 18.192 26.0957 0
166 1 10.1797 7.99605 0
167 1 29.6765 20.3659 0
168 1 19.276 24.4918 0
169 1 1.78653 13.3745 0
170 1 26.9765 20.398 0
171 1 5.67885 14.4195 0
172 1 25.841 24.9559 0
173 1 23.6235 10.1595 0
174 1 17.2288 23.3622 0
175 1 26.587 16.2671 0
176 1 28.3226 5.10115 0
177 1 28.2498 7.78109 0
178 1 9.75424 16.6298 0
179 1 24.9927 9.43502 0
180 1 7.57338 16.9655 0
181 1 0.248221 7.91915 0
182 1 29.7702 1.77833 0
183 1 23.0602 20.6694 0
184 1 26.6398 7.00218 0
185 1 27.5861 11.5199 0
186 1 21.26 24.6079 0
187 1 28.7473 3.43166 0
188 1 23.084 16.7065 0
189 1 26.4639 26.5613 0
190 1 27.3149 22.6582 0
191 1 19.6044 12.6814 0
192 1 10.4622 2.5269 0
193 1 11.2776 8.65705 0
194 1 17.7862 21.5273 0
ITEM: TIMESTEP
270
ITEM: NUMBER OF ATOMS
194
ITEM: BOX BOUNDS pp pp pp
0.0000000000000000e+00 3.0000000000000000e+01
0.0000000000000000e+00 3.0000000000000000e+01
-5.0000000000000000e-01 5.0000000000000000e-01
ITEM: ATOMS id type x y z
1 1 24.2587 11.5531 0
2 1 22.4442 12.8214 0
3 1 26.7368 24.8238 0
4 1 2.78675 18.2864 0
5 1 4.96138 5.27577 0
6 1 12.0687 16.8072 0
7 1 3.21382 7.48736 0
8 1 19.4752 9.98714 0
9 1 0.54057 24.0717 0
10 1 14.685 4.7583 0
11 1 27.7514 8.54936 0
12 1 12.7535 1.75798 0
13 1 15.8787 4.55003 0
14 1 12.0797 7.28574 0
15 1 28.9346 6.37712 0
16 1 19.4133 10.9227 0
17 1 26.361 2.93573 0
18 1 20.1646 27.9613 0
19 1 17.1455 22.4504 0
20 1 6.723 11.5787 0
21 1 13.2589 24.3384 0
22 1 12.5742 10.0533 0
23 1 5.72035 12.8135 0
24 1 0.384532 1.25269 0
25 1 21.7279 11.9485 0
26 1 1.38448 21.6674 0
27 1 1.95424 17.236 0
28 1 19.7302 8.94366 0
29 1 22.9571 2.31663 0
30 1 24.524 25.7144 0
31 1 9.35481 20.7704 0
32 1 13.6656 21.8442 0
33 1 15.4967 14.49 0
34 1 1.55753 26.3345 0
35 1 13.8191 3.497 0
36 1 20.4281 22.0075 0
37 1 28.4823 19.4702 0
38 1 15.2907 19.3456 0
39 1 18.2659 0.263044 0
40 1 16.4162 28.2968 0
41 1 27.7397 23.6009 0
42 1 29.6871 6.13045 0
43 1 10.5974 20.4124 0
44 1 13.4146 26.7638 0
45 1 2.90176 1.94673 0
46 1 4.65553 3.88481 0
47 1 11.8373 20.1458 0
48 1 10.9236 27.5274 0
49 1 1.42181 5.52554 0
50 1 3.76864 21.9476 0
51 1 24.3675 16.7362 0
52 1 15.4346 17.9767 0
53 1 17.0158 18.0505 0
54 1 20.8197 23.6907 0
55 1 25.2547 23.209 0
56 1 9.46174 2.25957 0
57 1 14.0643 24.8371 0
58 1 9.7773 4.79036 0
59 1 27.0491 19.4758 0
60 1 22.5398 26.822 0
61 1 26.6362 10.2966 0
62 1 22.7873 3.15217 0
63 1 24.8781 6.29623 0
64 1 22.612 4.30355 0
65 1 27.3502 21.285 0
66 1 9.51777 7.40487 0
67 1 15.5267 21.1298 0
68 1 3.95061 17.0523 0
69 1 14.6113 6.64549 0
70 1 4.62402 19.3497 0
71 1 3.78017 9.00379 0
72 1 2.55827 27.4384 0
73 1 5.47186 23.8989 0
74 1 23.2271 11.9664 0
75 1 1.99004 28.5023 0
76 1 20.3441 11.4612 0
77 1 4.25244 28.0341 0
78 1 10.8319 5.36707 0
79 1 8.81014 3.66449 0
80 1 8.13683 19.1243 0
81 1 17.7528 16.8138 0
82 1 15.24 23.7712 0
83 1 6.91214 27.2107 0
84 1 15.045 11.2254 0
85 1 3.37081 3.05734 0
86 1 16.207 16.0804 0
87 1 13.6956 18.885 0
88 1 11.6847 23.6974 0
89 1 21.6221 22.8239 0
90 1 17.6637 4.36778 0
91 1 3.29247 29.3438 0
92 1 18.7105 14.5682 0
93 1 14.3616 8.6738 0
94 1 22.9206 28.7769 0
95 1 0.702068 20.6658 0
96 1 13.9256 28.8483 0
97 1 3.33174 1.30647 0
98 1 2.75822 28.4912 0
99 1 18.8765 29.0001 0
100 1 17.0645 15.2077 0
101 1 13.3579 16.6107 0
102 1 16.7501 29.5556 0
103 1 27.086 5.19886 0
104 1 5.32095 21.0308 0
105 1 16.7774 21.1447 0
106 1 29.5825 7.18676 0
107 1 19.0683 3.3559 0
108 1 11.7245 18.5394 0
109 1 10.7088 17.5818 0
110 1 13.8836 13.4253 0
111 1 18.0577 1.85732 0
112 1 14.6516 2.02652 0
113 1 12.7874 21.9456 0
114 1 8.5042 9.59155 0
115 1 1.54309 14.1282 0
116 1 6.44244 3.75429 0
117 1 28.9443 26.093 0
118 1 10.8992 13.5521 0
119 1 23.3948 14.1619 0
120 1 16.034 7.75331 0
121 1 0.263636 21.9566 0
122 1 8.02654 6.44289 0
123 1 8.71444 27.2929 0
124 1 11.7903 11.4686 0
125 1 28.998 15.6348 0
126 1 4.67737 17.9497 0
127 1 6.01089 15.8365 0
128 1 28.5734 12.4874 0
129 1 9.33801 11.986 0
130 1 6.0015 18.5075 0
131 1 19.4102 17.3577 0
132 1 7.65916 25.3084 0
133 1 0.227601 25.1338 0
134 1 17.6881 29.4454 0
135 1 13.8823 -0.0373632 0
136 1 13.5147 20.3752 0
137 1 28.3528 16.7958 0
138 1 0.458361 19.8459 0
139 1 10.5915 10.6323 0
140 1 5.89144 0.521087 0
141 1 29.2748 18.9254 0
142 1 11.7591 5.37648 0
143 1 18.0188 27.0222 0
144 1 29.7703 0.687409 0
145 1 8.95926 18.3486 0
146 1 2.96045 11.4545 0
147 1 29.0669 4.40447 0
148 1 11.7246 0.6627 0
149 1 1.80328 0.220622 0
150 1 3.20664 5.89804 0
151 1 10.1634 1.05841 0
152 1 28.9933 13.8141 0
153 1 17.4754 3.43919 0
154 1 18.8211 1.2303 0
155 1 20.5076 3.76147 0
156 1 1.20086 8.59115 0
157 1 9.55619 17.7481 0
158 1 20.4718 4.98577 0
159 1 15.0079 12.6786 0
160 1 7.55647 4.37546 0
161 1 13.2881 10.8943 0
162 1 26.1527 20.9283 0
163 1 7.22843 13.3848 0
164 1 0.110438 28.5562 0
165 1 17.8781 26.1809 0
166 1 10.0576 8.1775 0
167 1 29.696 20.6243 0
168 1 19.1586 24.491 0
169 1 1.64227 13.3277 0
170 1 27.087 20.279 0
171 1 6.05415 14.4169 0
172 1 25.5649 24.5322 0
173 1 23.8334 10.1115 0
174 1 17.3825 23.2554 0
175 1 26.3063 16.1252 0
176 1 28.2172 5.07204 0
177 1 28.2639 7.73455 0
178 1 9.49063 16.8244 0
179 1 24.7813 9.62327 0
180 1 7.84183 16.8908 0
181 1 -0.0275221 8.30592 0
182 1 29.9766 2.25229 0
183 1 23.087 20.8333 0
184 1 26.6893 6.93252 0
185 1 27.5203 11.7064 0
186 1 21.3639 24.5055 0
187 1 28.9743 3.54093 0
188 1 22.9818 16.9193 0
189 1 26.1332 26.3873 0
190 1 27.5185 22.7074 0
191 1 19.4145 13.1883 0
192 1 10.4769 2.20592 0
193 1 11.3265 8.59487 0
194 1 17.7342 21.695 0
ITEM: TIMESTEP
285
ITEM: NUMBER OF ATOMS
194
ITEM: BOX BOUNDS pp pp pp
0.0000000000000000e+00 3.0000000000000000e+01
0.0000000000000000e+00 3.0000000000000000e+01
-5.0000000000000000e-01 5.0000000000000000e-01
ITEM: ATOMS id type x y z
1 1 23.8807 11.782 0
2 1 22.4294 12.9481 0
3 1 26.5706 24.6455 0
4 1 2.83565 18.0745 0
5 1 4.57435 5.27229 0
6 1 12.2365 16.5117 0
7 1 2.90094 7.25961 0
8 1 19.5403 9.68487 0
9 1 1.26495 24.129 0
10 1 14.3647 4.655 0
11 1 27.6456 8.53841 0
12 1 12.5915 1.66929 0
13 1 15.8239 4.78502 0
14 1 12.0118 7.17054 0
15 1 28.6647 6.49555 0
16 1 18.9556 10.8532 0
17 1 27.1054 2.57833 0
18 1 20.2337 28.2476 0
19 1 17.1172 22.4107 0
20 1 6.787 11.1558 0
21 1 13.1831 24.1091 0
22 1 12.5999 10.089 0
23 1 5.36628 12.7993 0
24 1 0.583901 1.60329 0
25 1 21.8017 11.4863 0
26 1 1.2344 21.614 0
27 1 2.00864 17.4302 0
28 1 19.6933 8.68494 0
29 1 23.2376 2.45372 0
30 1 25.0139 25.8491 0
31 1 9.90173 20.5325 0
32 1 13.9488 21.4261 0
33 1 15.7738 14.8943 0
34 1 1.58594 26.2326 0
35 1 13.8073 3.50108 0
36 1 20.8833 21.6497 0
37 1 28.53 19.192 0
38 1 15.2285 19.4143 0
39 1 18.6365 0.265838 0
40 1 16.2268 28.3992 0
41 1 27.4355 23.7834 0
42 1 30.1218 6.08583 0
43 1 10.695 20.3238 0
44 1 13.6765 26.8932 0
45 1 2.57285 2.22045 0
46 1 4.25039 3.88133 0
47 1 11.7161 20.2584 0
48 1 10.9976 27.6748 0
49 1 1.27012 5.45616 0
50 1 3.97478 21.4794 0
51 1 24.0561 16.3402 0
52 1 15.4433 18.0081 0
53 1 17.1442 17.9899 0
54 1 20.726 23.5617 0
55 1 25.1681 23.2046 0
56 1 9.45552 2.17419 0
57 1 13.9227 24.7951 0
58 1 9.88581 5.0546 0
59 1 26.8688 19.1018 0
60 1 22.777 26.7767 0
61 1 26.5915 10.5238 0
62 1 22.2548 3.33473 0
63 1 24.6879 6.27819 0
64 1 22.8028 4.72765 0
65 1 27.1843 21.6552 0
66 1 9.45326 7.64455 0
67 1 15.6183 20.6306 0
68 1 3.76932 17.0794 0
69 1 14.743 6.36763 0
70 1 4.75721 19.0726 0
71 1 3.45658 8.52274 0
72 1 2.69865 27.6084 0
73 1 5.3366 24.1448 0
74 1 23.1287 12.2919 0
75 1 1.59237 28.5045 0
76 1 20.4609 11.765 0
77 1 4.30613 28.2205 0
78 1 10.9141 5.00474 0
79 1 8.31058 3.7134 0
80 1 8.48266 19.1406 0
81 1 17.9197 16.6904 0
82 1 15.4434 23.6659 0
83 1 6.89493 27.0174 0
84 1 15.2525 11.258 0
85 1 3.55211 2.79663 0
86 1 16.2492 15.9528 0
87 1 13.5778 18.9126 0
88 1 11.604 23.5502 0
89 1 21.4517 23.1149 0
90 1 17.6392 4.38358 0
91 1 3.49512 29.5168 0
92 1 19.233 14.6757 0
93 1 14.6813 8.57105 0
94 1 23.1153 29.0066 0
95 1 0.67799 20.9586 0
96 1 13.5578 28.9656 0
97 1 3.294 0.788057 0
98 1 3.12551 28.4289 0
99 1 18.6547 29.3243 0
100 1 16.7635 15.0182 0
101 1 13.5664 17.1559 0
102 1 16.4118 30.1558 0
103 1 27.0172 5.19714 0
104 1 5.12075 20.8769 0
105 1 16.9075 21.3362 0
106 1 29.7381 7.04113 0
107 1 19.205 3.64753 0
108 1 11.5072 18.9371 0
109 1 10.7439 17.4803 0
110 1 14.0427 13.6365 0
111 1 17.7326 1.66131 0
112 1 14.5864 1.88992 0
113 1 12.8916 22.0071 0
114 1 8.87389 9.77102 0
115 1 1.13779 14.066 0
116 1 5.94098 3.87767 0
117 1 28.9309 25.9765 0
118 1 10.8289 13.4383 0
119 1 23.3035 14.1516 0
120 1 15.8761 7.8979 0
121 1 0.0666455 21.9191 0
122 1 8.15829 6.90545 0
123 1 9.31202 27.0902 0
124 1 11.7288 11.6665 0
125 1 28.9192 15.8198 0
126 1 4.75218 17.6192 0
127 1 6.05376 15.7355 0
128 1 28.388 12.4321 0
129 1 9.00857 11.9381 0
130 1 5.85919 18.39 0
131 1 19.5809 17.7776 0
132 1 7.59759 24.9513 0
133 1 0.30949 25.0094 0
134 1 17.7439 29.512 0
135 1 13.74 30.0127 0
136 1 13.3358 20.3076 0
137 1 28.2573 16.647 0
138 1 0.433946 19.7585 0
139 1 10.5507 10.7771 0
140 1 5.56643 0.632141 0
141 1 29.3238 18.5018 0
142 1 11.7165 5.08432 0
143 1 18.4654 27.1752 0
144 1 29.4026 0.926553 0
145 1 8.86587 18.3881 0
146 1 2.86884 11.3222 0
147 1 29.2572 4.42407 0
148 1 11.6459 0.516574 0
149 1 1.64521 0.565265 0
150 1 3.32994 5.91451 0
151 1 10.328 1.18065 0
152 1 28.9378 13.4282 0
153 1 17.3097 3.23047 0
154 1 18.8749 1.48637 0
155 1 20.7433 3.57785 0
156 1 1.47733 8.10476 0
157 1 9.91253 17.6652 0
158 1 20.2197 4.95602 0
159 1 15.4115 12.8347 0
160 1 7.63044 4.25367 0
161 1 13.4632 11.0669 0
162 1 26.0822 21.2309 0
163 1 7.62204 13.9708 0
164 1 0.427669 28.5462 0
165 1 17.5476 25.8444 0
166 1 10.0152 8.46916 0
167 1 29.6722 20.8867 0
168 1 19.0417 24.4898 0
169 1 1.55754 12.7737 0
170 1 27.1491 20.4251 0
171 1 6.43085 14.4148 0
172 1 25.2914 24.1115 0
173 1 23.8903 10.1435 0
174 1 17.6643 23.5901 0
175 1 26.0255 15.9836 0
176 1 27.9301 5.3144 0
177 1 28.3377 7.59151 0
178 1 9.22476 16.6927 0
179 1 24.7237 9.73503 0
180 1 8.11274 16.8169 0
181 1 29.7357 8.72617 0
182 1 0.164482 2.75054 0
183 1 23.1138 20.9973 0
184 1 26.74 6.86249 0
185 1 27.4572 11.8942 0
186 1 21.5247 24.4923 0
187 1 29.1657 3.29534 0
188 1 22.8832 17.1315 0
189 1 25.8032 26.2118 0
190 1 27.6907 22.6335 0
191 1 19.224 13.6959 0
192 1 10.565 2.02915 0
193 1 11.3724 8.5296 0
194 1 17.8155 21.7214 0
ITEM: TIMESTEP
300
ITEM: NUMBER OF ATOMS
194
ITEM: BOX BOUNDS pp pp pp
0.0000000000000000e+00 3.0000000000000000e+01
0.0000000000000000e+00 3.0000000000000000e+01
-5.0000000000000000e-01 5.0000000000000000e-01
ITEM: ATOMS id type x y z
1 1 23.8443 11.751 0
2 1 22.0969 13.3903 0
3 1 26.3926 24.4714 0
4 1 3.36605 18.3116 0
5 1 4.18469 5.26617 0
6 1 12.4061 16.2179 0
7 1 2.58923 7.03305 0
8 1 19.5993 9.41925 0
9 1 1.9866 24.1892 0
10 1 14.0459 4.54903 0
11 1 27.5388 8.52905 0
12 1 12.428 1.57843 0
13 1 15.7663 5.02008 0
14 1 11.9427 7.05734 0
15 1 28.3512 6.58703 0
16 1 18.4999 10.7854 0
17 1 27.8502 2.22099 0
18 1 20.3019 28.5341 0
19 1 16.977 22.4931 0
20 1 6.85097 10.7331 0
21 1 13.0528 23.8361 0
22 1 12.6277 10.1286 0
23 1 5.01279 12.7853 0
24 1 0.793634 1.96461 0
25 1 21.8752 11.0277 0
26 1 1.29598 21.8104 0
27 1 1.58548 17.1723 0
28 1 19.6619 8.38877 0
29 1 23.5486 2.52297 0
30 1 24.8779 25.6828 0
31 1 9.57795 20.5312 0
32 1 14.2485 20.9992 0
33 1 15.7304 15.2512 0
34 1 1.61432 26.1308 0
35 1 13.7977 3.50803 0
36 1 21.3397 21.2942 0
37 1 28.5549 18.9316 0
38 1 15.1584 19.47 0
39 1 19.0249 0.418452 0
40 1 16.0382 28.5032 0
41 1 27.1397 23.9758 0
42 1 0.552857 5.81995 0
43 1 11.0807 20.0791 0
44 1 13.9383 27.0227 0
45 1 2.23532 2.50942 0
46 1 3.84463 3.87721 0
47 1 12.1749 20.2959 0
48 1 11.0707 27.8218 0
49 1 1.23305 5.30977 0
50 1 4.16309 21.0186 0
51 1 23.7422 15.9457 0
52 1 15.4521 18.0427 0
53 1 17.2727 17.9271 0
54 1 20.3317 23.635 0
55 1 25.055 22.9142 0
56 1 9.44767 2.08684 0
57 1 13.835 24.7959 0
58 1 9.5294 5.23474 0
59 1 26.683 18.6551 0
60 1 23.0143 26.7315 0
61 1 26.5475 10.752 0
62 1 21.7161 3.59182 0
63 1 24.4979 6.26015 0
64 1 22.9928 5.14896 0
65 1 27.0064 22.0114 0
66 1 9.33862 7.81366 0
67 1 15.7191 20.1426 0
68 1 3.58591 17.1102 0
69 1 14.8754 6.08891 0
70 1 4.89189 18.7917 0
71 1 3.13084 8.03793 0
72 1 2.77893 27.6551 0
73 1 5.20144 24.3908 0
74 1 23.0048 12.5595 0
75 1 1.44382 28.4921 0
76 1 20.58 12.0675 0
77 1 4.40119 28.403 0
78 1 10.9184 4.67256 0
79 1 8.12847 3.48279 0
80 1 8.68329 19.4584 0
81 1 18.0849 16.5686 0
82 1 15.6466 23.5607 0
83 1 6.87791 26.8238 0
84 1 15.4594 11.2924 0
85 1 3.73408 2.53904 0
86 1 16.3362 15.9147 0
87 1 13.4604 18.9428 0
88 1 11.5249 23.4031 0
89 1 21.5814 23.2061 0
90 1 17.6154 4.40111 0
91 1 3.7266 29.6315 0
92 1 19.7813 14.8825 0
93 1 14.9947 8.47185 0
94 1 23.31 29.2361 0
95 1 0.508214 21.0209 0
96 1 13.1579 28.6773 0
97 1 3.23693 0.309641 0
98 1 3.56943 28.4969 0
99 1 18.6051 29.4736 0
100 1 16.739 14.7873 0
101 1 13.7725 17.7016 0
102 1 16.075 0.75438 0
103 1 26.5639 5.17639 0
104 1 4.93824 20.7149 0
105 1 16.9866 21.4975 0
106 1 29.823 7.18875 0
107 1 19.3432 3.94064 0
108 1 11.2937 19.3276 0
109 1 11.3528 17.2534 0
110 1 14.2037 13.847 0
111 1 17.1967 1.56195 0
112 1 14.5202 1.75361 0
113 1 12.9774 22.072 0
114 1 9.24487 9.94987 0
115 1 0.727633 14.0313 0
116 1 5.43936 4.00179 0
117 1 28.9185 25.8592 0
118 1 10.7587 13.3241 0
119 1 23.2105 14.1386 0
120 1 15.724 8.03831 0
121 1 29.8908 21.9236 0
122 1 8.29269 7.36942 0
123 1 9.91038 26.8879 0
124 1 11.666 11.862 0
125 1 28.8712 15.9745 0
126 1 4.8293 17.2941 0
127 1 6.09785 15.6307 0
128 1 28.2253 12.3839 0
129 1 8.67947 11.8897 0
130 1 5.71149 18.271 0
131 1 19.7511 18.1972 0
132 1 7.53585 24.5944 0
133 1 0.39372 24.8839 0
134 1 17.6088 29.6102 0
135 1 13.6296 0.468826 0
136 1 13.1583 20.2415 0
137 1 28.131 16.5285 0
138 1 0.401524 19.657 0
139 1 10.5116 10.9234 0
140 1 5.24113 0.743124 0
141 1 29.3949 18.062 0
142 1 12.2166 4.84616 0
143 1 18.9126 27.3322 0
144 1 29.0255 1.158 0
145 1 8.80153 18.2263 0
146 1 2.77686 11.1903 0
147 1 29.4559 4.54428 0
148 1 11.5662 0.374195 0
149 1 1.48669 0.912007 0
150 1 3.45409 5.933 0
151 1 10.3708 0.864143 0
152 1 28.8879 13.0487 0
153 1 17.1447 3.01826 0
154 1 19.1383 1.64057 0
155 1 20.9522 3.39329 0
156 1 1.75438 7.61747 0
157 1 9.81125 17.6088 0
158 1 19.9674 4.92193 0
159 1 15.8134 12.9903 0
160 1 7.38628 4.41076 0
161 1 13.6353 11.2364 0
162 1 26.0191 21.5324 0
163 1 8.01101 14.5584 0
164 1 0.436323 28.5508 0
165 1 17.2171 25.5039 0
166 1 10.024 8.8315 0
167 1 29.5676 21.1002 0
168 1 18.9234 24.4876 0
169 1 1.47786 12.1919 0
170 1 27.2153 20.6511 0
171 1 6.81066 14.4147 0
172 1 25.0487 23.9795 0
173 1 23.671 10.3151 0
174 1 17.95 23.9346 0
175 1 25.7444 15.842 0
176 1 28.0312 5.57965 0
177 1 28.4131 7.47621 0
178 1 9.10638 16.5299 0
179 1 24.9425 9.70966 0
180 1 8.23842 16.7741 0
181 1 29.4991 9.1441 0
182 1 0.362917 3.24447 0
183 1 23.1404 21.1613 0
184 1 26.7925 6.79156 0
185 1 27.365 12.0676 0
186 1 21.6841 24.4746 0
187 1 29.3379 2.95065 0
188 1 22.7873 17.342 0
189 1 26.0999 26.3348 0
190 1 27.8692 22.5527 0
191 1 19.0077 14.1042 0
192 1 10.7796 2.29184 0
193 1 11.4152 8.46213 0
194 1 18.0541 21.6462 0
ITEM: TIMESTEP
315
ITEM: NUMBER OF ATOMS
194
ITEM: BOX BOUNDS pp pp pp
0.0000000000000000e+00 3.0000000000000000e+01
0.0000000000000000e+00 3.0000000000000000e+01
-5.0000000000000000e-01 5.0000000000000000e-01
ITEM: ATOMS id type x y z
1 1 23.946 11.6068 0
2 1 21.7708 13.8313 0
3 1 26.0213 24.4114 0
4 1 3.89948 18.5433 0
5 1 3.87654 5.15239 0
6 1 12.574 15.9266 0
7 1 2.53205 6.59175 0
8 1 19.6554 9.18227 0
9 1 2.70698 24.2503 0
10 1 13.7295 4.46485 0
11 1 27.4348 8.51577 0
12 1 12.2636 1.48464 0
13 1 15.7095 5.25402 0
14 1 11.8726 6.94639 0
15 1 28.0413 6.62451 0
16 1 18.0451 10.7167 0
17 1 28.4896 2.06242 0
18 1 20.3691 28.8206 0
19 1 16.8372 22.6243 0
20 1 6.91513 10.3105 0
21 1 12.9222 23.5637 0
22 1 12.6567 10.1703 0
23 1 4.6594 12.7714 0
24 1 1.00499 2.32728 0
25 1 21.9488 10.5705 0
26 1 1.4023 22.0601 0
27 1 1.16323 16.9147 0
28 1 19.6326 8.06501 0
29 1 23.8593 2.59254 0
30 1 24.5805 25.4365 0
31 1 9.11642 20.5853 0
32 1 14.5444 20.5687 0
33 1 15.3367 15.4275 0
34 1 1.64239 26.0284 0
35 1 13.7859 3.49415 0
36 1 21.7971 20.9395 0
37 1 28.5818 18.6688 0
38 1 14.9232 19.3444 0
39 1 19.4323 0.65348 0
40 1 15.8499 28.6077 0
41 1 27.0334 24.0509 0
42 1 0.501287 5.89244 0
43 1 11.429 20.5353 0
44 1 14.1999 27.1527 0
45 1 1.89794 2.79727 0
46 1 3.44066 3.87254 0
47 1 12.2871 20.3729 0
48 1 11.142 27.9672 0
49 1 1.67628 4.82653 0
50 1 3.96408 20.7047 0
51 1 23.4277 15.5515 0
52 1 15.4597 18.0806 0
53 1 17.4013 17.8624 0
54 1 19.9285 23.7158 0
55 1 24.9341 22.4798 0
56 1 9.44496 1.99848 0
57 1 13.7459 24.7946 0
58 1 9.17524 5.41388 0
59 1 26.4979 18.209 0
60 1 23.2519 26.6862 0
61 1 26.5044 10.982 0
62 1 21.739 4.00535 0
63 1 24.3073 6.24154 0
64 1 23.1832 5.5703 0
65 1 26.8135 22.3504 0
66 1 9.25766 7.99385 0
67 1 15.9832 19.8341 0
68 1 3.40581 17.1468 0
69 1 15.006 5.81032 0
70 1 4.89018 18.5949 0
71 1 2.80541 7.55741 0
72 1 2.85301 27.6955 0
73 1 5.06641 24.6367 0
74 1 22.7386 12.9415 0
75 1 1.76246 28.4557 0
76 1 20.7007 12.3694 0
77 1 4.87211 28.5452 0
78 1 10.8733 4.33601 0
79 1 8.03492 3.16823 0
80 1 8.86368 19.7985 0
81 1 18.2485 16.4479 0
82 1 15.8509 23.4548 0
83 1 6.86094 26.6302 0
84 1 15.6658 11.3278 0
85 1 3.91404 2.28508 0
86 1 16.5813 16.0956 0
87 1 13.3414 18.9782 0
88 1 11.4478 23.2563 0
89 1 21.7208 23.2964 0
90 1 17.591 4.41559 0
91 1 4.17828 29.4148 0
92 1 20.3532 15.1453 0
93 1 14.9366 8.59613 0
94 1 23.5047 29.4656 0
95 1 0.395184 21.0175 0
96 1 12.7582 28.3896 0
97 1 2.96535 0.167467 0
98 1 3.63533 28.6085 0
99 1 18.6542 29.5272 0
100 1 16.907 14.5178 0
101 1 13.9806 18.2476 0
102 1 15.7365 1.35351 0
103 1 26.1116 5.15763 0
104 1 5.14306 20.4053 0
105 1 17.0511 21.6062 0
106 1 29.9043 7.33432 0
107 1 19.4471 4.15951 0
108 1 11.2544 18.9807 0
109 1 11.9658 17.0243 0
110 1 14.3657 14.0573 0
111 1 16.6634 1.46434 0
112 1 14.4529 1.61554 0
113 1 13.0643 22.136 0
114 1 9.61913 10.1275 0
115 1 0.317431 13.9958 0
116 1 4.93558 4.12643 0
117 1 28.907 25.7415 0
118 1 10.6891 13.2088 0
119 1 23.1138 14.1218 0
120 1 15.9434 7.95486 0
121 1 29.7998 22.1413 0
122 1 8.39505 7.82452 0
123 1 10.5107 26.6874 0
124 1 11.601 12.0563 0
125 1 28.9319 16.0443 0
126 1 4.9048 16.9746 0
127 1 6.14378 15.5231 0
128 1 28.106 12.2883 0
129 1 8.35059 11.8408 0
130 1 5.69458 18.0618 0
131 1 19.9212 18.6167 0
132 1 7.47394 24.2376 0
133 1 0.479057 24.7589 0
134 1 17.3558 29.7268 0
135 1 13.5189 0.926665 0
136 1 13.3402 20.1307 0
137 1 27.8964 16.4956 0
138 1 0.36796 19.5606 0
139 1 10.4729 11.07 0
140 1 4.91489 0.853656 0
141 1 29.4637 17.6247 0
142 1 12.7648 4.61282 0
143 1 19.3602 27.4899 0
144 1 28.7565 1.19283 0
145 1 8.75333 18.0216 0
146 1 2.68356 11.0594 0
147 1 29.6561 4.66264 0
148 1 11.4841 0.236027 0
149 1 1.32676 1.26309 0
150 1 3.49384 6.05829 0
151 1 10.4163 0.546872 0
152 1 28.9546 12.7721 0
153 1 16.9809 2.80603 0
154 1 19.4002 1.78985 0
155 1 20.5982 3.05383 0
156 1 1.77834 7.33651 0
157 1 9.70169 17.5503 0
158 1 19.7504 4.96067 0
159 1 16.2145 13.1458 0
160 1 7.05377 4.65152 0
161 1 13.806 11.404 0
162 1 25.9509 21.83 0
163 1 8.39496 15.146 0
164 1 -0.0198062 28.5784 0
165 1 16.8874 25.1623 0
166 1 10.0329 9.19399 0
167 1 29.2765 21.1073 0
168 1 18.9383 24.5466 0
169 1 1.39929 11.6097 0
170 1 27.2791 20.8826 0
171 1 7.19365 14.418 0
172 1 24.8189 23.993 0
173 1 23.4524 10.4897 0
174 1 18.1024 24.2166 0
175 1 25.463 15.7005 0
176 1 28.1156 5.70265 0
177 1 28.5004 7.56075 0
178 1 9.33982 16.2908 0
179 1 25.1609 9.68509 0
180 1 8.01625 16.8148 0
181 1 29.2619 9.56107 0
182 1 0.577622 3.73558 0
183 1 23.166 21.3253 0
184 1 26.8488 6.71899 0
185 1 27.1118 12.1833 0
186 1 21.8415 24.4507 0
187 1 29.4937 2.60617 0
188 1 22.6923 17.5514 0
189 1 26.5585 26.5357 0
190 1 28.0687 22.4904 0
191 1 18.7676 14.4565 0
192 1 10.9914 2.55451 0
193 1 11.4557 8.39317 0
194 1 18.3058 21.5765 0
ITEM: TIMESTEP
330
ITEM: NUMBER OF ATOMS
194
ITEM: BOX BOUNDS pp pp pp
0.0000000000000000e+00 3.0000000000000000e+01
0.0000000000000000e+00 3.0000000000000000e+01
-5.0000000000000000e-01 5.0000000000000000e-01
ITEM: ATOMS id type x y z
1 1 24.045 11.4591 0
2 1 21.4513 14.2702 0
3 1 25.5807 24.3833 0
4 1 4.05672 18.8078 0
5 1 3.64049 4.91742 0
6 1 12.7397 15.6395 0
7 1 2.60314 5.93935 0
8 1 19.7112 8.94801 0
9 1 3.42716 24.3117 0
10 1 14.0016 4.3853 0
11 1 27.3335 8.49936 0
12 1 12.1003 1.38772 0
13 1 15.9154 5.31141 0
14 1 11.8018 6.83781 0
15 1 27.7461 6.89884 0
16 1 17.5903 10.6479 0
17 1 28.7404 2.62682 0
18 1 20.4347 29.1065 0
19 1 16.7 22.7763 0
20 1 6.9795 9.8882 0
21 1 12.7913 23.2898 0
22 1 12.6863 10.2131 0
23 1 4.306 12.7575 0
24 1 1.00868 2.56214 0
25 1 22.025 10.1138 0
26 1 1.5044 22.3074 0
27 1 0.740145 16.6576 0
28 1 19.6034 7.7387 0
29 1 24.1699 2.66213 0
30 1 24.2842 25.1873 0
31 1 8.76778 21.0375 0
32 1 14.8382 20.137 0
33 1 14.9426 15.6001 0
34 1 1.67006 25.9253 0
35 1 13.7744 3.40454 0
36 1 22.2576 20.586 0
37 1 28.6116 18.4029 0
38 1 14.7173 19.2563 0
39 1 19.8379 0.88614 0
40 1 15.662 28.7124 0
41 1 26.9917 24.0913 0
42 1 0.445954 5.9661 0
43 1 11.4932 21.1406 0
44 1 14.4612 27.283 0
45 1 1.76383 3.22134 0
46 1 3.03951 3.87111 0
47 1 12.4182 20.4106 0
48 1 11.2138 28.1104 0
49 1 2.12058 4.34004 0
50 1 3.71051 20.4092 0
51 1 23.1127 15.1546 0
52 1 15.4637 18.1232 0
53 1 17.5299 17.7962 0
54 1 19.5252 23.7953 0
55 1 24.8127 22.0468 0
56 1 9.44387 1.91022 0
57 1 13.6553 24.791 0
58 1 8.82134 5.59267 0
59 1 26.3132 17.7628 0
60 1 23.49 26.6403 0
61 1 26.4629 11.2155 0
62 1 21.8 4.43395 0
63 1 24.1393 6.23112 0
64 1 23.3512 5.98311 0
65 1 26.6592 22.711 0
66 1 9.40951 8.22313 0
67 1 16.2815 19.5564 0
68 1 3.22915 17.1863 0
69 1 14.8736 5.70754 0
70 1 5.12226 18.4548 0
71 1 2.51947 7.10874 0
72 1 2.92703 27.742 0
73 1 4.93132 24.8827 0
74 1 22.4682 13.3252 0
75 1 2.08401 28.4172 0
76 1 20.8223 12.6718 0
77 1 5.38394 28.6727 0
78 1 10.8288 3.99861 0
79 1 7.94121 2.85434 0
80 1 8.93144 19.7392 0
81 1 18.4102 16.3278 0
82 1 16.0501 23.3542 0
83 1 6.84398 26.4365 0
84 1 15.8718 11.3637 0
85 1 4.09406 2.03164 0
86 1 16.829 16.277 0
87 1 13.176 19.0595 0
88 1 11.3736 23.1097 0
89 1 21.8594 23.3884 0
90 1 17.5667 4.42903 0
91 1 4.65495 29.2493 0
92 1 20.9242 15.4068 0
93 1 14.7958 8.77084 0
94 1 23.6994 29.6951 0
95 1 0.293492 21.0163 0
96 1 12.3571 28.1015 0
97 1 2.68726 0.032789 0
98 1 3.63805 28.6738 0
99 1 18.7028 29.5838 0
100 1 17.0731 14.2489 0
101 1 14.1704 18.6778 0
102 1 15.2766 1.95564 0
103 1 25.66 5.14017 0
104 1 5.40229 20.0758 0
105 1 17.1237 21.6887 0
106 1 29.9832 7.47846 0
107 1 19.4126 4.04248 0
108 1 11.2287 18.5592 0
109 1 12.581 16.7914 0
110 1 14.5288 14.2687 0
111 1 16.2519 1.36852 0
112 1 14.3923 1.47753 0
113 1 13.1502 22.2025 0
114 1 9.96881 10.3944 0
115 1 29.9067 13.9598 0
116 1 4.42743 4.25247 0
117 1 28.8959 25.6233 0
118 1 10.6215 13.0909 0
119 1 23.0151 14.1075 0
120 1 16.2453 7.82085 0
121 1 29.7196 22.3742 0
122 1 8.26698 8.23405 0
123 1 11.1124 26.4896 0
124 1 11.5323 12.2509 0
125 1 29.006 16.1077 0
126 1 4.98037 16.6607 0
127 1 6.19123 15.4142 0
128 1 27.9623 12.1414 0
129 1 8.02184 11.7913 0
130 1 5.81695 17.7556 0
131 1 20.0912 19.0362 0
132 1 7.41193 23.8809 0
133 1 0.564754 24.6351 0
134 1 17.1053 29.8434 0
135 1 13.3988 1.38496 0
136 1 13.7811 19.9836 0
137 1 27.6494 16.4714 0
138 1 0.33362 19.4674 0
139 1 10.4347 11.2173 0
140 1 4.58693 0.963838 0
141 1 29.5299 17.1886 0
142 1 12.7243 4.45073 0
143 1 19.8086 27.6488 0
144 1 28.8471 0.505037 0
145 1 8.68546 17.8227 0
146 1 2.58679 10.9298 0
147 1 29.8605 4.7804 0
148 1 11.4126 0.0985469 0
149 1 1.16799 1.61087 0
150 1 3.54384 6.29298 0
151 1 10.4529 0.232682 0
152 1 29.1155 12.5608 0
153 1 16.8161 2.59064 0
154 1 19.6625 1.9391 0
155 1 20.2039 2.70035 0
156 1 1.55082 7.23905 0
157 1 9.6085 17.4789 0
158 1 19.6728 5.3336 0
159 1 16.6163 13.3032 0
160 1 6.72196 4.8912 0
161 1 13.9764 11.5707 0
162 1 25.8489 22.1057 0
163 1 8.7709 15.7315 0
164 1 29.5254 28.6059 0
165 1 16.5596 24.8188 0
166 1 10.0668 9.46444 0
167 1 28.9657 21.0966 0
168 1 19.2832 24.7521 0
169 1 1.32415 11.0262 0
170 1 27.3418 21.1179 0
171 1 7.57822 14.4249 0
172 1 24.593 24.0083 0
173 1 23.2336 10.6681 0
174 1 17.9237 24.3544 0
175 1 25.1813 15.559 0
176 1 28.1895 5.55654 0
177 1 28.5994 7.68342 0
178 1 9.57914 16.0587 0
179 1 25.379 9.66143 0
180 1 7.79642 16.8575 0
181 1 29.0245 9.97751 0
182 1 0.791738 4.22591 0
183 1 23.1888 21.4884 0
184 1 26.8909 6.64219 0
185 1 26.7872 12.2816 0
186 1 21.9983 24.4248 0
187 1 29.6827 2.26281 0
188 1 22.5975 17.7605 0
189 1 27.0169 26.7363 0
190 1 28.2664 22.4273 0
191 1 18.5281 14.81 0
192 1 11.2023 2.81652 0
193 1 11.4954 8.3227 0
194 1 18.5523 21.5076 0
ITEM: TIMESTEP
345
ITEM: NUMBER OF ATOMS
194
ITEM: BOX BOUNDS pp pp pp
0.0000000000000000e+00 3.0000000000000000e+01
0.0000000000000000e+00 3.0000000000000000e+01
-5.0000000000000000e-01 5.0000000000000000e-01
ITEM: ATOMS id type x y z
1 1 24.1424 11.3097 0
2 1 21.1354 14.7027 0
3 1 25.1783 24.3699 0
4 1 3.9587 19.1074 0
5 1 3.2623 4.78406 0
6 1 12.9052 15.3564 0
7 1 2.5528 5.28044 0
8 1 19.7666 8.70902 0
9 1 4.14877 24.3739 0
10 1 14.5671 4.31874 0
11 1 27.2346 8.47963 0
12 1 11.9395 1.28888 0
13 1 16.2273 5.30604 0
14 1 11.7305 6.73163 0
15 1 27.6326 7.23368 0
16 1 17.1347 10.5794 0
17 1 28.9374 3.19582 0
18 1 20.4986 29.3916 0
19 1 16.8119 22.705 0
20 1 7.04435 9.46565 0
21 1 12.6531 23.0229 0
22 1 12.7161 10.2563 0
23 1 3.95258 12.7436 0
24 1 0.780444 2.77368 0
25 1 22.105 9.65892 0
26 1 1.60485 22.5541 0
27 1 0.329705 16.3933 0
28 1 19.5747 7.41698 0
29 1 24.4805 2.73172 0
30 1 23.9894 24.9365 0
31 1 8.42781 21.5381 0
32 1 15.2566 20.365 0
33 1 14.5479 15.7695 0
34 1 1.69715 25.8214 0
35 1 13.7581 3.27063 0
36 1 22.7216 20.2357 0
37 1 28.6429 18.1349 0
38 1 14.9272 19.0642 0
39 1 20.2709 1.06198 0
40 1 15.4743 28.8169 0
41 1 26.9461 24.1286 0
42 1 0.389564 6.03739 0
43 1 11.496 21.7711 0
44 1 14.7227 27.4141 0
45 1 1.66022 3.52317 0
46 1 3.19515 3.60494 0
47 1 12.6158 20.4213 0
48 1 11.2373 28.2688 0
49 1 2.18105 4.3948 0
50 1 3.45897 20.1114 0
51 1 22.7882 14.9206 0
52 1 15.4634 18.1719 0
53 1 17.6581 17.7279 0
54 1 19.1289 23.8403 0
55 1 24.6766 21.6144 0
56 1 9.44276 1.82226 0
57 1 13.564 24.7864 0
58 1 8.46729 5.77137 0
59 1 26.1292 17.3161 0
60 1 23.7287 26.5933 0
61 1 26.4204 11.4374 0
62 1 21.8607 4.86261 0
63 1 24.3745 6.34106 0
64 1 23.1165 6.27483 0
65 1 26.5402 23.0978 0
66 1 9.59366 8.45972 0
67 1 16.575 19.2776 0
68 1 3.0538 17.2264 0
69 1 14.6345 5.66528 0
70 1 5.56713 18.3308 0
71 1 2.29979 6.65272 0
72 1 3.02982 27.7682 0
73 1 4.79477 25.1281 0
74 1 22.115 13.6223 0
75 1 2.38155 28.4037 0
76 1 20.9454 12.9756 0
77 1 5.99607 28.7225 0
78 1 10.7742 3.67419 0
79 1 7.84818 2.5401 0
80 1 8.99051 19.6308 0
81 1 18.5694 16.206 0
82 1 16.0019 23.4795 0
83 1 6.82697 26.2427 0
84 1 16.0781 11.3996 0
85 1 4.25907 1.86016 0
86 1 17.0789 16.4592 0
87 1 12.9839 19.1574 0
88 1 11.3033 22.9625 0
89 1 21.9943 23.4554 0
90 1 17.5423 4.44232 0
91 1 5.03302 29.1675 0
92 1 21.4968 15.6707 0
93 1 14.6562 8.94477 0
94 1 23.8941 29.9245 0
95 1 0.186936 21.0166 0
96 1 12.0038 27.7966 0
97 1 2.41018 29.8959 0
98 1 3.63327 28.7319 0
99 1 18.7513 29.6413 0
100 1 17.3203 14.1528 0
101 1 13.864 18.5342 0
102 1 14.7974 2.57653 0
103 1 25.208 5.12371 0
104 1 5.65936 19.7444 0
105 1 17.1992 21.771 0
106 1 0.0606764 7.6209 0
107 1 19.3757 3.9147 0
108 1 11.2033 18.1376 0
109 1 13.1969 16.5549 0
110 1 14.6928 14.4836 0
111 1 15.8814 1.26935 0
112 1 14.3466 1.33276 0
113 1 13.2395 22.2618 0
114 1 10.1882 10.6124 0
115 1 29.4951 13.9225 0
116 1 4.05407 4.27426 0
117 1 28.885 25.505 0
118 1 10.5562 12.9696 0
119 1 23.002 14.0192 0
120 1 16.546 7.68757 0
121 1 29.6368 22.6018 0
122 1 8.10862 8.64041 0
123 1 11.7146 26.294 0
124 1 11.4592 12.4461 0
125 1 29.0561 16.143 0
126 1 5.05833 16.3505 0
127 1 6.23909 15.3056 0
128 1 27.8184 11.9945 0
129 1 7.69312 11.7416 0
130 1 5.97922 17.3971 0
131 1 20.2612 19.4557 0
132 1 7.34991 23.5241 0
133 1 0.650796 24.5123 0
134 1 16.8555 29.9601 0
135 1 13.2397 1.83941 0
136 1 14.2091 19.8357 0
137 1 27.4058 16.4471 0
138 1 0.298695 19.3763 0
139 1 10.4997 11.5783 0
140 1 4.27348 0.991125 0
141 1 29.602 16.7906 0
142 1 12.3962 4.32031 0
143 1 20.2576 27.8096 0
144 1 28.9382 -0.182627 0
145 1 8.55958 17.6402 0
146 1 2.48492 10.8006 0
147 1 30.0533 4.90743 0
148 1 11.4215 -0.0459174 0
149 1 1.03191 1.83822 0
150 1 3.70902 6.53221 0
151 1 10.4108 -0.0719051 0
152 1 29.2759 12.3509 0
153 1 16.6485 2.37121 0
154 1 19.6237 1.67741 0
155 1 20.0815 2.81535 0
156 1 1.25959 7.14505 0
157 1 9.56977 17.3833 0
158 1 19.5984 5.71526 0
159 1 16.9385 13.289 0
160 1 6.3903 5.13077 0
161 1 14.1468 11.7369 0
162 1 25.7285 22.3573 0
163 1 8.877 16.2451 0
164 1 29.0705 28.6341 0
165 1 16.234 24.4717 0
166 1 10.1285 9.56862 0
167 1 28.6581 21.0905 0
168 1 19.6206 24.9929 0
169 1 1.25409 10.4424 0
170 1 27.4062 21.3561 0
171 1 7.96262 14.4334 0
172 1 24.3303 24.0096 0
173 1 23.0129 10.8464 0
174 1 17.7423 24.4919 0
175 1 24.8993 15.4175 0
176 1 28.2627 5.41157 0
177 1 28.6985 7.8065 0
178 1 10.0854 15.905 0
179 1 25.5973 9.63835 0
180 1 7.58223 16.9016 0
181 1 28.7869 10.3939 0
182 1 1.02594 4.70829 0
183 1 23.2092 21.6488 0
184 1 26.7536 6.50577 0
185 1 26.4648 12.3911 0
186 1 22.1588 24.4239 0
187 1 29.9315 1.91484 0
188 1 22.5026 17.9696 0
189 1 27.4754 26.9366 0
190 1 28.4653 22.3607 0
191 1 18.2866 15.1654 0
192 1 11.4243 3.06458 0
193 1 11.5348 8.25047 0
194 1 18.7953 21.4392 0
ITEM: TIMESTEP
360
ITEM: NUMBER OF ATOMS
194
ITEM: BOX BOUNDS pp pp pp
0.0000000000000000e+00 3.0000000000000000e+01
0.0000000000000000e+00 3.0000000000000000e+01
-5.0000000000000000e-01 5.0000000000000000e-01
ITEM: ATOMS id type x y z
1 1 24.236 11.1585 0
2 1 20.8204 15.1162 0
3 1 24.9077 24.4149 0
4 1 3.90871 19.3568 0
5 1 3.14066 4.48302 0
6 1 13.0736 15.0782 0
7 1 2.38969 5.59202 0
8 1 19.8213 8.46517 0
9 1 4.83277 24.3543 0
10 1 15.1309 4.25328 0
11 1 27.1373 8.45735 0
12 1 11.7804 1.18858 0
13 1 16.5386 5.29979 0
14 1 11.659 6.6277 0
15 1 27.5547 7.58686 0
16 1 16.6773 10.5118 0
17 1 29.1364 3.76383 0
18 1 20.5611 29.6766 0
19 1 16.9622 22.6454 0
20 1 7.09297 9.04586 0
21 1 12.4601 22.8146 0
22 1 12.7462 10.2997 0
23 1 3.59909 12.7296 0
24 1 0.500475 3.08759 0
25 1 22.1869 9.206 0
26 1 1.70448 22.8008 0
27 1 0.303437 15.8951 0
28 1 19.5467 7.09856 0
29 1 24.7911 2.80136 0
30 1 23.6666 24.7708 0
31 1 8.08783 22.0383 0
32 1 15.7154 20.7941 0
33 1 14.2791 15.8268 0
34 1 1.72349 25.7166 0
35 1 13.5695 3.18391 0
36 1 23.1866 19.8877 0
37 1 28.6756 17.8648 0
38 1 15.0144 18.8287 0
39 1 20.8351 1.06847 0
40 1 15.2864 28.9204 0
41 1 26.9164 24.1963 0
42 1 0.335734 6.10778 0
43 1 11.5753 22.1808 0
44 1 14.9851 27.5468 0
45 1 1.32044 3.43608 0
46 1 3.65981 3.16878 0
47 1 12.815 20.4285 0
48 1 11.0922 28.5132 0
49 1 1.80989 4.2827 0
50 1 3.16144 19.8632 0
51 1 22.4249 14.9782 0
52 1 15.569 18.0612 0
53 1 17.7846 17.6559 0
54 1 18.7316 23.8831 0
55 1 24.5395 21.184 0
56 1 9.4411 1.73467 0
57 1 13.4724 24.7815 0
58 1 8.11302 5.95 0
59 1 25.9471 16.868 0
60 1 23.9677 26.545 0
61 1 26.378 11.5697 0
62 1 21.9218 5.29183 0
63 1 24.656 6.45902 0
64 1 22.8365 6.55555 0
65 1 26.4094 23.4583 0
66 1 9.77707 8.69988 0
67 1 16.865 18.9976 0
68 1 2.87883 17.2668 0
69 1 14.3972 5.61865 0
70 1 5.98784 18.249 0
71 1 2.05165 6.28613 0
72 1 3.25648 27.6762 0
73 1 4.69596 25.4552 0
74 1 21.6854 13.8701 0
75 1 2.56049 28.5142 0
76 1 21.0628 13.275 0
77 1 6.64068 28.7524 0
78 1 10.5906 3.46892 0
79 1 7.75606 2.22546 0
80 1 9.04937 19.5225 0
81 1 18.7469 16.1193 0
82 1 15.8341 23.3897 0
83 1 6.80983 26.0489 0
84 1 16.2859 11.4351 0
85 1 4.3933 2.01356 0
86 1 17.3333 16.6433 0
87 1 12.7873 19.2653 0
88 1 11.1641 23.0364 0
89 1 22.1191 23.4612 0
90 1 17.5167 4.45655 0
91 1 5.37525 29.1051 0
92 1 22.0743 15.9491 0
93 1 14.5166 9.11866 0
94 1 24.0888 0.153993 0
95 1 0.0776349 21.0173 0
96 1 11.8187 27.4055 0
97 1 2.13427 29.7554 0
98 1 3.62536 28.7891 0
99 1 18.8005 29.6991 0
100 1 17.6918 14.327 0
101 1 13.5573 18.3799 0
102 1 14.4927 3.14923 0
103 1 24.7548 5.10988 0
104 1 5.91537 19.4091 0
105 1 17.3059 21.7798 0
106 1 0.138289 7.76071 0
107 1 19.3392 3.78604 0
108 1 11.1774 17.7158 0
109 1 13.685 16.4206 0
110 1 14.8558 14.7036 0
111 1 15.5107 1.17385 0
112 1 14.3034 1.18977 0
113 1 13.3771 22.261 0
114 1 10.3432 10.7006 0
115 1 29.0832 13.8836 0
116 1 3.95335 4.13759 0
117 1 28.874 25.3867 0
118 1 10.4606 12.8782 0
119 1 23.1044 13.6977 0
120 1 16.8466 7.5543 0
121 1 29.5524 22.8276 0
122 1 7.96954 9.04392 0
123 1 12.3171 26.1009 0
124 1 11.4133 12.6281 0
125 1 28.8859 15.9041 0
126 1 5.14021 16.0423 0
127 1 6.28609 15.1986 0
128 1 27.6717 11.8476 0
129 1 7.36436 11.6917 0
130 1 6.16367 16.9966 0
131 1 20.4312 19.8753 0
132 1 7.28807 23.1671 0
133 1 0.737329 24.3903 0
134 1 16.6047 0.0775648 0
135 1 13.0776 2.2946 0
136 1 14.6197 19.6953 0
137 1 27.162 16.424 0
138 1 0.263329 19.2866 0
139 1 10.633 12.0762 0
140 1 3.99041 0.693399 0
141 1 29.5076 16.9026 0
142 1 12.0675 4.18704 0
143 1 20.7068 27.9722 0
144 1 29.0739 29.3043 0
145 1 8.4021 17.4647 0
146 1 2.37831 10.6701 0
147 1 0.202353 5.0467 0
148 1 11.4822 29.81 0
149 1 0.968926 1.96033 0
150 1 3.86957 6.76985 0
151 1 10.3184 29.6243 0
152 1 29.4338 12.1415 0
153 1 16.4777 2.14818 0
154 1 19.3426 1.38349 0
155 1 20.0692 3.13204 0
156 1 0.957882 7.0499 0
157 1 9.56664 17.287 0
158 1 19.5239 6.09734 0
159 1 17.1388 13.0073 0
160 1 6.05878 5.37039 0
161 1 14.3174 11.9028 0
162 1 25.6015 22.6034 0
163 1 8.91309 16.7401 0
164 1 28.5709 28.4877 0
165 1 15.963 24.4016 0
166 1 10.188 9.64523 0
167 1 28.3501 21.0902 0
168 1 19.9562 25.2365 0
169 1 1.18879 9.85985 0
170 1 27.4749 21.5967 0
171 1 8.34673 14.4425 0
172 1 23.9641 23.8672 0
173 1 22.7945 11.0242 0
174 1 17.5606 24.6281 0
175 1 24.617 15.2759 0
176 1 28.336 5.26746 0
177 1 28.7957 7.92715 0
178 1 10.6512 15.7622 0
179 1 25.8161 9.61559 0
180 1 7.37313 16.9476 0
181 1 28.5489 10.8113 0
182 1 1.30204 5.18585 0
183 1 23.2313 21.8068 0
184 1 26.5856 6.35433 0
185 1 26.1478 12.5897 0
186 1 22.3307 24.4842 0
187 1 0.137519 1.56167 0
188 1 22.4078 18.1788 0
189 1 27.9344 27.1369 0
190 1 28.6645 22.2873 0
191 1 18.0207 15.4847 0
192 1 11.7776 3.19451 0
193 1 11.5737 8.17649 0
194 1 19.0366 21.3713 0
ITEM: TIMESTEP
375
ITEM: NUMBER OF ATOMS
194
ITEM: BOX BOUNDS pp pp pp
0.0000000000000000e+00 3.0000000000000000e+01
0.0000000000000000e+00 3.0000000000000000e+01
-5.0000000000000000e-01 5.0000000000000000e-01
ITEM: ATOMS id type x y z
1 1 24.3268 11.0069 0
2 1 20.5102 15.5281 0
3 1 24.6569 24.4713 0
4 1 4.01844 19.4724 0
5 1 2.92531 4.19379 0
6 1 13.2466 14.8041 0
7 1 2.62385 5.32425 0
8 1 19.8752 8.21721 0
9 1 5.50096 24.282 0
10 1 15.6918 4.18602 0
11 1 26.9603 8.57438 0
12 1 11.6214 1.08585 0
13 1 16.8517 5.29081 0
14 1 11.5873 6.52581 0
15 1 27.5598 7.80048 0
16 1 16.2296 10.4093 0
17 1 29.3382 4.3328 0
18 1 20.6234 29.964 0
19 1 17.0537 22.7267 0
20 1 6.95032 8.62686 0
21 1 12.3409 22.7107 0
22 1 12.7765 10.3429 0
23 1 3.24555 12.7155 0
24 1 0.0219106 3.32408 0
25 1 22.2689 8.75364 0
26 1 1.80339 23.048 0
27 1 0.328796 15.3582 0
28 1 19.5416 7.18805 0
29 1 25.1017 2.87115 0
30 1 23.3189 24.7223 0
31 1 7.84912 22.4556 0
32 1 16.1734 21.2216 0
33 1 14.5478 15.4615 0
34 1 1.749 25.6106 0
35 1 13.0723 3.47641 0
36 1 23.652 19.5405 0
37 1 28.7 17.6009 0
38 1 14.9852 18.6836 0
39 1 21.3999 1.06989 0
40 1 15.0985 29.0213 0
41 1 26.9951 24.4242 0
42 1 0.276275 6.16973 0
43 1 11.7212 22.0551 0
44 1 15.2482 27.683 0
45 1 1.05981 3.20486 0
46 1 4.07122 2.74959 0
47 1 13.0148 20.4328 0
48 1 10.9452 28.7633 0
49 1 1.44478 4.12082 0
50 1 2.70469 19.7486 0
51 1 22.0648 15.0243 0
52 1 15.8371 17.7138 0
53 1 17.9233 17.6144 0
54 1 18.3315 23.9288 0
55 1 24.4 20.7551 0
56 1 9.43887 1.64745 0
57 1 13.3799 24.7775 0
58 1 7.7585 6.12855 0
59 1 25.769 16.4181 0
60 1 24.2066 26.4957 0
61 1 26.3439 11.6669 0
62 1 21.9842 5.72295 0
63 1 24.9375 6.57305 0
64 1 22.5565 6.83431 0
65 1 26.1675 23.6568 0
66 1 9.93979 8.89029 0
67 1 17.1536 18.7151 0
68 1 2.70396 17.3073 0
69 1 14.1611 5.56981 0
70 1 6.41052 18.1586 0
71 1 1.4402 6.82266 0
72 1 3.50533 27.5653 0
73 1 4.61319 25.8353 0
74 1 21.486 14.3647 0
75 1 2.70306 28.6486 0
76 1 20.9491 13.3293 0
77 1 7.28144 28.7834 0
78 1 10.3905 3.27617 0
79 1 7.66487 1.91054 0
80 1 9.10819 19.4139 0
81 1 18.9767 16.0973 0
82 1 15.6221 23.0203 0
83 1 6.79245 25.8549 0
84 1 16.4842 11.5065 0
85 1 4.56287 2.12476 0
86 1 17.5788 16.7937 0
87 1 12.5931 19.3743 0
88 1 10.8662 23.5586 0
89 1 22.2404 23.4419 0
90 1 17.4886 4.4729 0
91 1 5.72015 29.0415 0
92 1 22.6472 16.2379 0
93 1 14.3769 9.29272 0
94 1 24.2835 0.383464 0
95 1 -0.0332794 21.018 0
96 1 11.6392 27.0087 0
97 1 1.86102 29.6102 0
98 1 3.63032 28.8471 0
99 1 18.8509 29.7581 0
100 1 18.0642 14.505 0
101 1 13.2525 18.2294 0
102 1 14.62 3.63215 0
103 1 24.3013 5.09997 0
104 1 6.16961 19.0787 0
105 1 17.4679 21.6502 0
106 1 0.207119 7.90591 0
107 1 19.2155 3.71711 0
108 1 11.1499 17.2934 0
109 1 13.5283 16.8533 0
110 1 15.1216 14.7761 0
111 1 15.1519 1.08003 0
112 1 14.2511 1.04858 0
113 1 13.5332 22.2423 0
114 1 10.5008 10.8051 0
115 1 28.6714 13.8443 0
116 1 4.08829 3.9365 0
117 1 28.863 25.2685 0
118 1 10.2124 13.2398 0
119 1 23.2047 13.3774 0
120 1 17.147 7.42086 0
121 1 29.4841 23.0639 0
122 1 8.02273 9.44656 0
123 1 12.9193 25.9099 0
124 1 11.4885 12.8505 0
125 1 28.6919 15.6337 0
126 1 5.22778 15.7348 0
127 1 6.33058 15.0948 0
128 1 27.5192 11.7005 0
129 1 7.03561 11.6419 0
130 1 6.33695 16.5925 0
131 1 20.6008 20.2951 0
132 1 7.12496 22.8929 0
133 1 0.824577 24.2686 0
134 1 16.3518 0.196209 0
135 1 12.7925 2.46357 0
136 1 14.9836 19.7024 0
137 1 26.915 16.4023 0
138 1 0.227629 19.1977 0
139 1 10.7968 12.0767 0
140 1 3.7073 0.389188 0
141 1 29.3925 17.0784 0
142 1 11.737 4.14037 0
143 1 21.1558 28.1359 0
144 1 29.3187 29.1188 0
145 1 8.05475 17.5206 0
146 1 2.26899 10.538 0
147 1 0.342429 5.1716 0
148 1 11.5415 29.6652 0
149 1 1.03922 2.13541 0
150 1 4.0289 7.00682 0
151 1 10.2257 29.3219 0
152 1 29.5894 11.9315 0
153 1 16.3037 1.922 0
154 1 19.0603 1.09122 0
155 1 20.1433 3.38811 0
156 1 0.638567 6.97767 0
157 1 9.8338 17.4029 0
158 1 19.4272 6.07543 0
159 1 17.3391 12.7261 0
160 1 5.72739 5.61003 0
161 1 14.4882 12.0684 0
162 1 25.4755 22.8511 0
163 1 8.86789 16.791 0
164 1 27.9538 28.0512 0
165 1 15.7421 24.6085 0
166 1 10.2665 9.759 0
167 1 28.0856 21.0632 0
168 1 20.2911 25.4792 0
169 1 1.12615 9.27888 0
170 1 27.506 21.8716 0
171 1 8.7307 14.4518 0
172 1 23.613 23.5976 0
173 1 22.579 11.202 0
174 1 17.3803 24.7615 0
175 1 24.3346 15.1345 0
176 1 28.4107 5.12232 0
177 1 28.8916 8.04603 0
178 1 11.2161 15.6208 0
179 1 26.0356 9.59254 0
180 1 7.17502 16.9975 0
181 1 28.313 11.2303 0
182 1 1.56596 5.68537 0
183 1 23.2558 21.9635 0
184 1 26.4187 6.20465 0
185 1 25.828 12.8231 0
186 1 22.4982 24.5673 0
187 1 0.21101 1.16074 0
188 1 22.3132 18.3883 0
189 1 28.4019 27.2995 0
190 1 28.8438 22.1954 0
191 1 17.6966 15.7391 0
192 1 12.1525 3.22283 0
193 1 11.6119 8.10093 0
194 1 19.2772 21.3034 0
ITEM: TIMESTEP
390
ITEM: NUMBER OF ATOMS
194
ITEM: BOX BOUNDS pp pp pp
0.0000000000000000e+00 3.0000000000000000e+01
0.0000000000000000e+00 3.0000000000000000e+01
-5.0000000000000000e-01 5.0000000000000000e-01
ITEM: ATOMS id type x y z
1 1 24.417 10.8553 0
2 1 20.2015 15.9383 0
3 1 24.4004 24.5251 0
4 1 4.13104 19.5857 0
5 1 2.69155 3.91266 0
6 1 13.4227 14.5321 0
7 1 2.86348 5.04707 0
8 1 20.0249 8.15762 0
9 1 6.16925 24.2108 0
10 1 16.2504 4.11815 0
11 1 26.7038 8.81257 0
12 1 11.4624 0.980377 0
13 1 17.138 5.32307 0
14 1 11.5157 6.42574 0
15 1 27.6501 7.89058 0
16 1 15.7835 10.2935 0
17 1 29.5451 4.90134 0
18 1 20.6869 0.254393 0
19 1 17.1396 22.8162 0
20 1 6.79194 8.20539 0
21 1 12.4459 22.8172 0
22 1 12.8072 10.3859 0
23 1 2.89196 12.7013 0
24 1 29.4887 3.55392 0
25 1 22.3509 8.30044 0
26 1 1.90072 23.297 0
27 1 0.352119 14.822 0
28 1 19.4586 7.37642 0
29 1 25.4123 2.94104 0
30 1 23.4233 24.7597 0
31 1 8.09646 22.5147 0
32 1 16.6335 21.6513 0
33 1 14.4956 15.5284 0
34 1 1.77362 25.5034 0
35 1 12.8618 4.14158 0
36 1 24.1184 19.1958 0
37 1 28.4754 17.5104 0
38 1 14.9757 18.4347 0
39 1 21.9622 1.06796 0
40 1 14.9119 29.1193 0
41 1 27.0901 24.6722 0
42 1 0.126582 6.08018 0
43 1 11.6463 21.7187 0
44 1 15.5108 27.8235 0
45 1 0.698591 2.98603 0
46 1 4.1095 2.80607 0
47 1 13.2139 20.4355 0
48 1 10.9807 28.8712 0
49 1 1.18719 4.17796 0
50 1 2.24525 19.6362 0
51 1 21.9752 15.3525 0
52 1 16.1052 17.3689 0
53 1 18.1444 17.7727 0
54 1 17.9268 23.9771 0
55 1 24.2579 20.3244 0
56 1 9.43634 1.56077 0
57 1 13.2863 24.7688 0
58 1 7.40367 6.30708 0
59 1 25.5933 15.9677 0
60 1 24.4454 26.4457 0
61 1 26.303 11.7683 0
62 1 22.0477 6.15527 0
63 1 25.2207 6.68454 0
64 1 22.2755 7.11269 0
65 1 25.922 23.8524 0
66 1 10.053 8.95025 0
67 1 17.4418 18.4295 0
68 1 2.52911 17.3478 0
69 1 13.9253 5.52004 0
70 1 6.86547 17.9631 0
71 1 1.26658 7.27091 0
72 1 3.75258 27.462 0
73 1 4.53092 26.2145 0
74 1 21.0639 14.6386 0
75 1 2.73921 28.7622 0
76 1 20.7873 13.3247 0
77 1 7.92018 28.8147 0
78 1 10.1928 3.08367 0
79 1 7.57451 1.5955 0
80 1 9.16699 19.3048 0
81 1 19.2047 16.076 0
82 1 15.4134 22.6514 0
83 1 6.77458 25.6606 0
84 1 16.6819 11.5934 0
85 1 5.10376 1.75539 0
86 1 17.7494 16.7923 0
87 1 12.4025 19.4816 0
88 1 10.5702 24.0792 0
89 1 22.3623 23.424 0
90 1 17.4855 4.44658 0
91 1 6.06666 28.9777 0
92 1 23.2186 16.526 0
93 1 14.2369 9.46725 0
94 1 24.4781 0.612934 0
95 1 29.854 21.0197 0
96 1 11.4603 26.6117 0
97 1 1.59176 29.4611 0
98 1 3.74032 28.925 0
99 1 18.9027 29.8194 0
100 1 18.4356 14.6874 0
101 1 12.9453 18.0841 0
102 1 14.7497 4.11724 0
103 1 23.8484 5.0919 0
104 1 6.39157 18.8518 0
105 1 17.6312 21.5123 0
106 1 0.260401 8.1121 0
107 1 19.0002 3.69526 0
108 1 11.1186 16.8702 0
109 1 13.3719 17.2853 0
110 1 15.7055 14.4144 0
111 1 15.0216 0.996651 0
112 1 13.9756 0.89729 0
113 1 13.6843 22.2248 0
114 1 10.6635 10.93 0
115 1 28.2598 13.8055 0
116 1 4.23847 3.73525 0
117 1 28.8518 25.1502 0
118 1 9.9495 13.6512 0
119 1 23.304 13.058 0
120 1 17.4476 7.28716 0
121 1 29.4239 23.3078 0
122 1 8.09219 9.85161 0
123 1 13.5217 25.7244 0
124 1 11.5991 13.106 0
125 1 28.5 15.3647 0
126 1 5.32278 15.4273 0
127 1 6.37105 14.9966 0
128 1 27.1921 11.6314 0
129 1 6.7069 11.5919 0
130 1 6.41214 16.1351 0
131 1 20.7692 20.7159 0
132 1 6.47542 22.9775 0
133 1 0.913334 24.1461 0
134 1 16.0955 0.31713 0
135 1 12.4783 2.22375 0
136 1 15.3287 19.8113 0
137 1 26.6661 16.3809 0
138 1 0.191677 19.1092 0
139 1 10.938 11.9902 0
140 1 3.42395 0.082572 0
141 1 29.5258 17.0782 0
142 1 11.3921 4.18986 0
143 1 21.6048 28.3003 0
144 1 29.5626 28.9324 0
145 1 7.68942 17.6929 0
146 1 2.15881 10.4051 0
147 1 0.49804 5.21977 0
148 1 11.613 29.5416 0
149 1 1.15985 2.09741 0
150 1 4.18819 7.24345 0
151 1 9.93893 29.1436 0
152 1 29.7422 11.7203 0
153 1 16.1266 1.6925 0
154 1 18.778 0.796472 0
155 1 20.3084 3.59741 0
156 1 -0.0279494 7.15982 0
157 1 10.1594 17.5566 0
158 1 19.3126 5.76614 0
159 1 17.538 12.4433 0
160 1 5.39602 5.84982 0
161 1 14.6594 12.2338 0
162 1 25.3351 23.0829 0
163 1 8.8386 16.7256 0
164 1 27.2563 27.8233 0
165 1 15.5224 24.8134 0
166 1 10.391 9.98708 0
167 1 27.8641 20.9956 0
168 1 20.626 25.7217 0
169 1 1.06338 8.69716 0
170 1 27.5005 22.1919 0
171 1 9.11538 14.4606 0
172 1 23.2655 23.3258 0
173 1 22.3647 11.3797 0
174 1 17.2022 24.891 0
175 1 24.0519 14.9934 0
176 1 28.4863 4.97586 0
177 1 28.9881 8.16328 0
178 1 11.781 15.4807 0
179 1 26.2539 9.57249 0
180 1 7.01953 17.0584 0
181 1 28.259 11.5721 0
182 1 1.81966 6.18557 0
183 1 23.2812 22.1217 0
184 1 26.2497 6.05614 0
185 1 25.5101 13.0528 0
186 1 22.2171 24.5648 0
187 1 0.280823 0.758598 0
188 1 22.2193 18.5983 0
189 1 28.9511 27.2541 0
190 1 29.0107 22.0905 0
191 1 17.3672 15.9415 0
192 1 12.2828 3.18977 0
193 1 11.6493 8.02394 0
194 1 19.5184 21.2347 0
ITEM: TIMESTEP
405
ITEM: NUMBER OF ATOMS
194
ITEM: BOX BOUNDS pp pp pp
0.0000000000000000e+00 3.0000000000000000e+01
0.0000000000000000e+00 3.0000000000000000e+01
-5.0000000000000000e-01 5.0000000000000000e-01
ITEM: ATOMS id type x y z
1 1 24.5074 10.7041 0
2 1 20.1619 16.3586 0
3 1 24.3285 24.5218 0
4 1 4.2429 19.699 0
5 1 2.45878 3.63389 0
6 1 13.6005 14.2621 0
7 1 3.10044 4.76797 0
8 1 20.331 8.37594 0
9 1 6.83852 24.1378 0
10 1 16.7814 4.04286 0
11 1 26.6003 8.75161 0
12 1 11.3047 0.873124 0
13 1 17.3779 5.45593 0
14 1 11.4442 6.32719 0
15 1 27.7423 7.98331 0
16 1 15.3374 10.1793 0
17 1 29.6784 5.36677 0
18 1 20.7514 0.545965 0
19 1 17.2308 22.9187 0
20 1 6.63411 7.78368 0
21 1 12.5556 22.9231 0
22 1 12.8386 10.4282 0
23 1 2.53833 12.687 0
24 1 28.9595 3.78772 0
25 1 22.5119 8.03679 0
26 1 1.99468 23.5489 0
27 1 0.37473 14.286 0
28 1 19.2187 7.28479 0
29 1 25.7228 3.01092 0
30 1 23.4249 24.8629 0
31 1 8.34562 22.5725 0
32 1 17.0478 22.0821 0
33 1 14.4413 15.5937 0
34 1 1.79733 25.3944 0
35 1 12.7376 4.87546 0
36 1 24.585 18.8519 0
37 1 28.19 17.4561 0
38 1 14.9679 18.1867 0
39 1 22.5225 1.06457 0
40 1 14.7273 29.2161 0
41 1 27.1829 24.9181 0
42 1 -0.0364358 6.14121 0
43 1 11.5709 21.3813 0
44 1 15.7721 27.967 0
45 1 0.259073 3.04049 0
46 1 4.10791 2.72856 0
47 1 13.4099 20.4354 0
48 1 11.0036 28.8275 0
49 1 0.928574 4.22999 0
50 1 1.78637 19.5235 0
51 1 21.9754 15.7688 0
52 1 16.3744 17.0253 0
53 1 18.5233 17.8721 0
54 1 17.518 24.0246 0
55 1 24.1149 19.893 0
56 1 9.43398 1.47505 0
57 1 13.1847 24.7214 0
58 1 7.04832 6.48615 0
59 1 25.4194 15.5181 0
60 1 24.6839 26.3947 0
61 1 26.0205 11.9196 0
62 1 22.102 6.48077 0
63 1 25.5059 6.795 0
64 1 21.9249 7.30821 0
65 1 25.725 24.1122 0
66 1 10.16 8.99136 0
67 1 17.5889 18.2427 0
68 1 2.35424 17.3886 0
69 1 13.6894 5.46778 0
70 1 6.74021 17.9289 0
71 1 1.13179 7.50452 0
72 1 3.99861 27.3635 0
73 1 4.44907 26.5931 0
74 1 20.5503 14.8229 0
75 1 2.71834 28.8689 0
76 1 20.6267 13.3245 0
77 1 8.559 28.8463 0
78 1 9.99626 2.89098 0
79 1 7.48471 1.28044 0
80 1 9.22581 19.1952 0
81 1 19.1616 16.0415 0
82 1 15.2061 22.2817 0
83 1 6.75594 25.4643 0
84 1 16.8779 11.6791 0
85 1 5.65672 1.37121 0
86 1 17.9432 16.866 0
87 1 12.216 19.5899 0
88 1 10.2744 24.5996 0
89 1 22.2076 23.4641 0
90 1 17.5557 4.32667 0
91 1 6.41375 28.9137 0
92 1 23.7896 16.8125 0
93 1 14.0969 9.64301 0
94 1 24.6728 0.842446 0
95 1 29.7385 21.0242 0
96 1 11.2815 26.2147 0
97 1 1.32597 29.3103 0
98 1 3.90554 29.0122 0
99 1 18.9861 29.7735 0
100 1 18.8071 14.8734 0
101 1 12.484 18.1649 0
102 1 14.8806 4.6039 0
103 1 23.3954 5.0843 0
104 1 6.54964 18.7827 0
105 1 17.8349 21.3647 0
106 1 0.111437 8.31187 0
107 1 18.7859 3.6745 0
108 1 11.0845 16.4481 0
109 1 13.369 17.494 0
110 1 16.2892 14.0528 0
111 1 14.9829 0.91945 0
112 1 13.6144 0.740326 0
113 1 13.8323 22.2085 0
114 1 10.837 11.0887 0
115 1 27.8488 13.7685 0
116 1 4.4131 3.68404 0
117 1 28.8402 25.0313 0
118 1 9.85869 13.8492 0
119 1 23.4033 12.7384 0
120 1 17.7487 7.15297 0
121 1 29.3632 23.5487 0
122 1 8.16154 10.2563 0
123 1 14.1324 25.5774 0
124 1 11.7068 13.3588 0
125 1 28.3081 15.0945 0
126 1 5.42038 15.1228 0
127 1 6.41048 14.8502 0
128 1 27.0184 11.541 0
129 1 6.37832 11.5418 0
130 1 6.4678 15.7093 0
131 1 20.9338 21.138 0
132 1 5.82367 23.0672 0
133 1 1.00516 24.0218 0
134 1 15.8365 0.441616 0
135 1 12.2219 1.82779 0
136 1 15.673 19.9176 0
137 1 26.4152 16.3583 0
138 1 0.155771 19.021 0
139 1 11.0894 11.9382 0
140 1 3.13921 29.7714 0
141 1 29.7197 17.041 0
142 1 11.0514 4.23534 0
143 1 22.0536 28.4648 0
144 1 29.8066 28.7457 0
145 1 8.05949 17.7791 0
146 1 2.04842 10.2719 0
147 1 0.742489 5.16226 0
148 1 11.7852 29.5284 0
149 1 1.35556 1.7912 0
150 1 4.34793 7.47943 0
151 1 9.56316 29.0098 0
152 1 29.8922 11.5089 0
153 1 15.9454 1.4574 0
154 1 18.4653 0.609058 0
155 1 20.4712 3.8067 0
156 1 29.2798 7.32995 0
157 1 10.4865 17.7066 0
158 1 19.1978 5.45838 0
159 1 17.7373 12.16 0
160 1 5.06443 6.09019 0
161 1 14.831 12.399 0
162 1 25.1471 23.254 0
163 1 8.80826 16.6635 0
164 1 26.5576 27.5977 0
165 1 15.3035 25.0182 0
166 1 10.5028 10.1693 0
167 1 27.6445 20.9313 0
168 1 20.9613 25.9639 0
169 1 1.19549 8.398 0
170 1 27.4973 22.5107 0
171 1 9.32956 14.6819 0
172 1 23.19 23.0501 0
173 1 22.1509 11.5578 0
174 1 17.0249 25.0176 0
175 1 23.7691 14.8532 0
176 1 28.556 4.82987 0
177 1 29.0864 8.27942 0
178 1 12.3455 15.3422 0
179 1 26.3214 9.85008 0
180 1 6.79413 16.8976 0
181 1 28.294 11.8877 0
182 1 2.0697 6.68738 0
183 1 23.3127 22.235 0
184 1 26.0786 5.90845 0
185 1 25.1934 13.28 0
186 1 21.8554 24.5439 0
187 1 0.352181 0.357145 0
188 1 22.1259 18.8082 0
189 1 29.5017 27.2072 0
190 1 29.1775 21.9849 0
191 1 16.9988 16.0265 0
192 1 12.2642 3.24659 0
193 1 11.6859 7.94568 0
194 1 19.7629 21.1647 0
ITEM: TIMESTEP
420
ITEM: NUMBER OF ATOMS
194
ITEM: BOX BOUNDS pp pp pp
0.0000000000000000e+00 3.0000000000000000e+01
0.0000000000000000e+00 3.0000000000000000e+01
-5.0000000000000000e-01 5.0000000000000000e-01
ITEM: ATOMS id type x y z
1 1 24.5984 10.5531 0
2 1 20.3529 16.8009 0
3 1 24.4791 24.4441 0
4 1 4.35476 19.8122 0
5 1 2.22739 3.35912 0
6 1 13.7782 13.9945 0
7 1 3.33597 4.48429 0
8 1 20.6366 8.59249 0
9 1 7.5062 24.0665 0
10 1 16.9083 3.81972 0
11 1 26.5442 8.58732 0
12 1 11.1504 0.765432 0
13 1 17.6157 5.59599 0
14 1 11.3736 6.22937 0
15 1 27.8366 8.07863 0
16 1 14.8897 10.0646 0
17 1 29.5815 5.30939 0
18 1 20.816 0.837549 0
19 1 17.3922 23.2977 0
20 1 6.46584 7.39438 0
21 1 12.6676 23.0272 0
22 1 12.872 10.4693 0
23 1 2.18466 12.6726 0
24 1 28.4422 3.89798 0
25 1 22.8656 8.16011 0
26 1 2.0969 23.7995 0
27 1 0.397137 13.7501 0
28 1 18.9784 7.19342 0
29 1 26.0333 3.08069 0
30 1 23.2058 25.0355 0
31 1 8.59451 22.6306 0
32 1 17.3728 22.1954 0
33 1 14.3856 15.6576 0
34 1 1.8202 25.283 0
35 1 12.5621 5.59975 0
36 1 25.0504 18.5087 0
37 1 27.9065 17.401 0
38 1 14.96 17.9384 0
39 1 23.0823 1.06088 0
40 1 14.5445 29.3143 0
41 1 27.2758 25.1633 0
42 1 29.9973 6.73114 0
43 1 11.4967 21.0439 0
44 1 16.0323 28.1119 0
45 1 29.8205 3.09916 0
46 1 4.08307 2.55814 0
47 1 13.6036 20.4342 0
48 1 10.9903 28.7529 0
49 1 0.677287 4.1797 0
50 1 1.32625 19.4102 0
51 1 21.9742 16.1844 0
52 1 16.5898 16.8602 0
53 1 19.0197 17.8984 0
54 1 17.1034 24.1238 0
55 1 23.9728 19.4606 0
56 1 9.43249 1.39133 0
57 1 13.0837 24.6719 0
58 1 6.70278 6.63264 0
59 1 25.2479 15.0709 0
60 1 24.9224 26.3431 0
61 1 25.645 12.0957 0
62 1 22.2158 6.46382 0
63 1 25.7861 6.91431 0
64 1 21.3215 7.45928 0
65 1 25.5457 24.4012 0
66 1 10.2689 9.03699 0
67 1 17.6171 18.1219 0
68 1 2.1793 17.4295 0
69 1 13.505 5.4222 0
70 1 6.55222 17.6719 0
71 1 1.01068 7.02301 0
72 1 4.03656 27.6329 0
73 1 4.57488 26.6061 0
74 1 20.0377 15.0075 0
75 1 2.60119 28.7512 0
76 1 20.466 13.3269 0
77 1 8.5293 28.7694 0
78 1 9.79985 2.6968 0
79 1 7.39419 0.965445 0
80 1 9.2844 19.0846 0
81 1 18.8845 15.9893 0
82 1 14.9965 21.9115 0
83 1 6.73763 25.2638 0
84 1 17.0107 11.7363 0
85 1 6.21051 0.987313 0
86 1 18.1394 16.9467 0
87 1 12.0322 19.6974 0
88 1 9.97923 25.1206 0
89 1 21.9307 23.5381 0
90 1 18.0318 4.3518 0
91 1 6.76111 28.8498 0
92 1 24.3606 17.0984 0
93 1 13.9562 9.8212 0
94 1 24.8672 1.07208 0
95 1 29.6293 21.0129 0
96 1 11.1023 25.8169 0
97 1 1.05988 29.16 0
98 1 4.07138 29.0944 0
99 1 19.114 29.6247 0
100 1 19.1794 15.0557 0
101 1 11.9521 18.3331 0
102 1 15.0096 5.092 0
103 1 22.9421 5.07723 0
104 1 6.60643 19.0451 0
105 1 18.0635 21.205 0
106 1 29.9595 8.47298 0
107 1 18.5746 3.65182 0
108 1 11.0494 16.0284 0
109 1 13.4364 17.6182 0
110 1 16.8728 13.6912 0
111 1 14.8254 0.895526 0
112 1 13.2562 0.583793 0
113 1 13.9807 22.1931 0
114 1 10.9776 11.1137 0
115 1 27.4391 13.7343 0
116 1 4.60916 3.72669 0
117 1 28.8281 24.9104 0
118 1 10.0381 13.6964 0
119 1 23.5025 12.4183 0
120 1 18.0512 7.01759 0
121 1 29.3022 23.7897 0
122 1 8.23097 10.6611 0
123 1 14.4913 25.5635 0
124 1 11.8131 13.6099 0
125 1 28.1152 14.821 0
126 1 5.49775 14.8287 0
127 1 6.45551 14.3985 0
128 1 26.9402 11.427 0
129 1 6.0499 11.4916 0
130 1 6.53959 15.5835 0
131 1 21.0944 21.5605 0
132 1 5.17341 23.1592 0
133 1 1.08838 23.9011 0
134 1 15.6695 0.400212 0
135 1 11.9635 1.43072 0
136 1 16.0169 20.0233 0
137 1 26.161 16.3329 0
138 1 0.121054 18.9332 0
139 1 11.3089 12.1133 0
140 1 2.94712 29.6884 0
141 1 29.9115 17.0047 0
142 1 10.7126 4.27902 0
143 1 22.5024 28.6294 0
144 1 0.0524993 28.5589 0
145 1 8.59488 17.8231 0
146 1 1.93776 10.1383 0
147 1 1.00712 5.19866 0
148 1 11.989 29.5501 0
149 1 1.54975 1.48567 0
150 1 4.5086 7.71351 0
151 1 9.85947 28.9842 0
152 1 0.0408586 11.2977 0
153 1 15.786 1.33214 0
154 1 18.1086 0.524657 0
155 1 20.6323 4.01618 0
156 1 28.5957 7.4372 0
157 1 10.8152 17.8538 0
158 1 19.0815 5.1502 0
159 1 17.9991 11.9051 0
160 1 4.73234 6.3325 0
161 1 15.0028 12.5643 0
162 1 24.9374 23.3996 0
163 1 8.77601 16.605 0
164 1 25.8587 27.3719 0
165 1 15.3367 25.0913 0
166 1 10.5793 10.2555 0
167 1 27.4255 20.8694 0
168 1 21.2972 26.205 0
169 1 1.46265 8.85096 0
170 1 27.4956 22.8274 0
171 1 9.27409 15.2542 0
172 1 23.1745 23.1741 0
173 1 21.9379 11.7368 0
174 1 16.846 25.1455 0
175 1 23.4869 14.7135 0
176 1 28.6214 4.80964 0
177 1 29.0304 8.45146 0
178 1 12.9105 15.2035 0
179 1 26.3449 10.2298 0
180 1 6.56914 16.6624 0
181 1 28.326 12.2026 0
182 1 2.31553 7.19187 0
183 1 23.4077 21.9179 0
184 1 25.9127 5.75212 0
185 1 24.877 13.5058 0
186 1 21.4956 24.5232 0
187 1 0.425663 -0.0467871 0
188 1 22.0328 19.0183 0
189 1 30.0527 27.1621 0
190 1 29.3366 21.8968 0
191 1 16.6858 15.9306 0
192 1 12.2443 3.30404 0
193 1 11.7216 7.86632 0
194 1 20.0108 21.0946 0
ITEM: TIMESTEP
435
ITEM: NUMBER OF ATOMS
194
ITEM: BOX BOUNDS pp pp pp
0.0000000000000000e+00 3.0000000000000000e+01
0.0000000000000000e+00 3.0000000000000000e+01
-5.0000000000000000e-01 5.0000000000000000e-01
ITEM: ATOMS id type x y z
1 1 24.6906 10.4027 0
2 1 20.5418 17.2418 0
3 1 24.5607 24.3854 0
4 1 4.46673 19.9254 0
5 1 1.99663 3.08599 0
6 1 13.9548 13.7295 0
7 1 3.57269 4.19749 0
8 1 20.9439 8.80545 0
9 1 8.17269 23.9973 0
10 1 16.9954 3.58089 0
11 1 26.4915 8.42257 0
12 1 10.951 0.623909 0
13 1 17.858 5.73277 0
14 1 11.303 6.13125 0
15 1 27.7877 8.37061 0
16 1 14.6219 9.98068 0
17 1 29.527 5.25801 0
18 1 20.8806 1.12899 0
19 1 17.6252 23.5039 0
20 1 6.13041 7.53982 0
21 1 12.7816 23.1313 0
22 1 12.9055 10.5104 0
23 1 1.83058 12.6584 0
24 1 27.9209 3.7511 0
25 1 23.2181 8.28248 0
26 1 2.22926 24.0493 0
27 1 0.419827 13.2138 0
28 1 19.0486 7.17968 0
29 1 26.3438 3.15038 0
30 1 22.9876 25.2062 0
31 1 8.84285 22.6894 0
32 1 17.6907 22.2353 0
33 1 14.3275 15.72 0
34 1 1.84267 25.1672 0
35 1 12.2791 6.32332 0
36 1 25.5127 18.1662 0
37 1 27.6231 17.3455 0
38 1 14.9504 17.6896 0
39 1 23.6429 1.05716 0
40 1 14.3636 29.4159 0
41 1 27.3701 25.4076 0
42 1 0.00438922 7.33208 0
43 1 11.4237 20.7042 0
44 1 16.2921 28.2574 0
45 1 29.3828 3.16231 0
46 1 4.0591 2.39084 0
47 1 13.7966 20.4337 0
48 1 11.1347 28.619 0
49 1 0.419856 4.08428 0
50 1 0.868108 19.2981 0
51 1 21.9721 16.6001 0
52 1 16.71 17.0777 0
53 1 19.5114 17.9201 0
54 1 16.6334 24.4115 0
55 1 23.8325 19.0258 0
56 1 9.43259 1.31132 0
57 1 12.9836 24.6221 0
58 1 6.52311 6.24428 0
59 1 25.0764 14.6236 0
60 1 25.1582 26.2764 0
61 1 25.271 12.2712 0
62 1 22.3381 6.42495 0
63 1 26.0659 7.03365 0
64 1 20.7099 7.63464 0
65 1 25.4252 24.6993 0
66 1 10.3796 9.08758 0
67 1 17.6489 17.9947 0
68 1 2.00408 17.4707 0
69 1 13.4301 5.3779 0
70 1 6.36527 17.4507 0
71 1 0.920351 6.53943 0
72 1 3.99772 28.0423 0
73 1 4.77692 26.4828 0
74 1 20.2456 15.15 0
75 1 2.39397 28.4105 0
76 1 20.3051 13.3305 0
77 1 8.15561 28.637 0
78 1 9.60287 2.49902 0
79 1 7.48596 0.655495 0
80 1 9.34193 18.9707 0
81 1 18.5736 16.0372 0
82 1 14.8163 21.5256 0
83 1 6.72088 25.0604 0
84 1 17.0869 11.7784 0
85 1 6.58231 0.597942 0
86 1 18.336 17.0322 0
87 1 11.8482 19.8035 0
88 1 9.6876 25.6434 0
89 1 21.6622 23.6026 0
90 1 18.3113 4.54521 0
91 1 7.10992 28.7863 0
92 1 24.933 17.3853 0
93 1 13.6349 9.96884 0
94 1 25.0607 1.3018 0
95 1 29.5577 20.8805 0
96 1 10.9196 25.4173 0
97 1 0.921589 28.8968 0
98 1 4.23094 29.1747 0
99 1 19.2404 29.4775 0
100 1 18.8648 15.1837 0
101 1 11.5628 18.623 0
102 1 15.1366 5.58056 0
103 1 22.4877 5.07205 0
104 1 6.66215 19.3112 0
105 1 18.2899 21.0492 0
106 1 0.0504092 8.63907 0
107 1 18.491 3.42031 0
108 1 11.014 15.6091 0
109 1 13.5043 17.7434 0
110 1 17.4563 13.3289 0
111 1 14.5444 0.922091 0
112 1 12.8967 0.426999 0
113 1 14.0976 22.1932 0
114 1 11.1476 11.1868 0
115 1 27.0324 13.7034 0
116 1 4.80131 3.76805 0
117 1 28.8097 24.7979 0
118 1 10.2181 13.5445 0
119 1 23.6019 12.0984 0
120 1 18.0428 6.80121 0
121 1 29.2461 24.0219 0
122 1 8.3004 11.0659 0
123 1 14.3078 25.8353 0
124 1 11.9187 13.8597 0
125 1 27.9195 14.5433 0
126 1 5.56178 14.5448 0
127 1 6.51638 13.9156 0
128 1 26.8642 11.3196 0
129 1 5.7216 11.4413 0
130 1 6.61104 15.4632 0
131 1 21.2515 21.9814 0
132 1 4.52332 23.2513 0
133 1 1.14092 23.7855 0
134 1 15.5852 0.126102 0
135 1 11.7531 1.06374 0
136 1 16.3606 20.1291 0
137 1 25.9053 16.3063 0
138 1 0.0842546 18.8437 0
139 1 11.5457 12.3438 0
140 1 2.8494 29.8271 0
141 1 0.103067 16.969 0
142 1 10.3743 4.32199 0
143 1 22.9512 28.7941 0
144 1 0.270724 28.3475 0
145 1 9.13177 17.8648 0
146 1 1.8357 10.0476 0
147 1 1.27064 5.28014 0
148 1 12.1892 29.5736 0
149 1 1.7437 1.17989 0
150 1 4.67021 7.94385 0
151 1 10.3441 29.0769 0
152 1 0.189208 11.0868 0
153 1 15.6636 1.38532 0
154 1 17.7536 0.438892 0
155 1 20.7927 4.22592 0
156 1 28.053 7.32763 0
157 1 11.003 17.882 0
158 1 19.0709 4.90501 0
159 1 18.3172 11.6662 0
160 1 4.4003 6.57852 0
161 1 15.1746 12.7301 0
162 1 24.7347 23.5185 0
163 1 8.74114 16.5538 0
164 1 25.1623 27.1601 0
165 1 15.9077 24.8761 0
166 1 10.6086 10.2348 0
167 1 27.2069 20.8083 0
168 1 21.6335 26.4449 0
169 1 1.71869 9.25971 0
170 1 27.4944 23.1439 0
171 1 9.22143 15.8232 0
172 1 23.1518 23.3283 0
173 1 21.7258 11.9164 0
174 1 16.6633 25.3293 0
175 1 23.2059 14.5736 0
176 1 28.653 5.03068 0
177 1 28.7348 8.63684 0
178 1 13.4787 15.0633 0
179 1 26.3645 10.6041 0
180 1 6.3432 16.4033 0
181 1 28.3563 12.5171 0
182 1 2.55745 7.69676 0
183 1 23.5069 21.5738 0
184 1 25.7476 5.59662 0
185 1 24.5606 13.732 0
186 1 21.1328 24.5119 0
187 1 0.401834 29.6831 0
188 1 21.9401 19.2284 0
189 1 0.603619 27.1209 0
190 1 29.4575 21.93 0
191 1 16.4722 15.4543 0
192 1 12.2236 3.36144 0
193 1 11.7567 7.7859 0
194 1 20.262 21.0262 0
ITEM: TIMESTEP
450
ITEM: NUMBER OF ATOMS
194
ITEM: BOX BOUNDS pp pp pp
0.0000000000000000e+00 3.0000000000000000e+01
0.0000000000000000e+00 3.0000000000000000e+01
-5.0000000000000000e-01 5.0000000000000000e-01
ITEM: ATOMS id type x y z
1 1 24.7841 10.2533 0
2 1 20.7617 17.6685 0
3 1 24.4377 24.5058 0
4 1 4.57886 20.0386 0
5 1 1.76588 2.81311 0
6 1 14.1317 13.4668 0
7 1 3.8136 3.90822 0
8 1 21.2505 9.0142 0
9 1 8.83981 23.926 0
10 1 17.0869 3.34314 0
11 1 26.4433 8.25469 0
12 1 10.6092 0.397871 0
13 1 18.1121 5.75734 0
14 1 11.2051 6.02776 0
15 1 27.5542 8.80126 0
16 1 14.5159 9.91412 0
17 1 29.6494 5.25285 0
18 1 20.9451 1.42032 0
19 1 17.8599 23.6995 0
20 1 5.78085 7.72236 0
21 1 12.8973 23.2371 0
22 1 12.7049 10.7529 0
23 1 1.47412 12.6448 0
24 1 27.4041 3.60528 0
25 1 23.5702 8.40454 0
26 1 2.37106 24.2917 0
27 1 0.444535 12.6765 0
28 1 19.3058 7.21774 0
29 1 26.6526 3.21902 0
30 1 22.7694 25.3758 0
31 1 9.08992 22.751 0
32 1 18.0103 22.2759 0
33 1 14.2948 15.8187 0
34 1 1.85962 25.0567 0
35 1 12.036 7.01957 0
36 1 26.1884 18.0441 0
37 1 27.3392 17.29 0
38 1 14.9383 17.4403 0
39 1 24.2068 1.054 0
40 1 14.1852 29.5222 0
41 1 27.4661 25.6509 0
42 1 29.9947 7.93125 0
43 1 11.2467 20.559 0
44 1 16.5516 28.4034 0
45 1 28.9462 3.2294 0
46 1 4.03577 2.22623 0
47 1 13.9905 20.4353 0
48 1 11.6327 28.3278 0
49 1 0.159606 3.99096 0
50 1 0.623452 19.3249 0
51 1 21.968 17.0165 0
52 1 16.8335 17.2966 0
53 1 19.9703 17.9527 0
54 1 16.8499 24.0977 0
55 1 23.6927 18.5902 0
56 1 9.43443 1.2339 0
57 1 12.8838 24.5704 0
58 1 6.35445 5.81941 0
59 1 25.0177 14.2911 0
60 1 25.3916 26.0432 0
61 1 24.8957 12.4469 0
62 1 22.4604 6.38284 0
63 1 26.347 7.15325 0
64 1 20.0982 7.81333 0
65 1 25.4597 25.0425 0
66 1 10.4915 9.14065 0
67 1 17.6813 17.8616 0
68 1 1.82813 17.512 0
69 1 13.3554 5.33464 0
70 1 6.17889 17.2518 0
71 1 0.844038 6.05328 0
72 1 3.95394 28.4419 0
73 1 4.97839 26.3607 0
74 1 20.6272 15.2818 0
75 1 2.18621 28.0727 0
76 1 20.1443 13.3346 0
77 1 8.11823 28.4212 0
78 1 9.40551 2.298 0
79 1 8.03619 0.362868 0
80 1 9.39891 18.8635 0
81 1 18.1934 16.2312 0
82 1 14.6843 21.1008 0
83 1 6.7048 24.8564 0
84 1 17.1655 11.8217 0
85 1 6.49624 0.18993 0
86 1 18.5299 17.1731 0
87 1 11.8124 19.8387 0
88 1 9.40029 26.1656 0
89 1 21.4043 23.6512 0
90 1 18.0394 4.5192 0
91 1 7.1226 28.8076 0
92 1 25.2934 17.4494 0
93 1 13.3849 9.89817 0
94 1 25.2511 1.53098 0
95 1 29.4942 20.7078 0
96 1 10.7328 25.0182 0
97 1 1.17131 28.645 0
98 1 4.3919 29.2649 0
99 1 19.3659 29.3311 0
100 1 18.4472 15.1261 0
101 1 11.445 19.0863 0
102 1 15.2625 6.06904 0
103 1 22.0323 5.0704 0
104 1 6.71762 19.5764 0
105 1 18.5145 20.8973 0
106 1 0.142689 8.80913 0
107 1 18.4318 3.13118 0
108 1 10.978 15.1895 0
109 1 13.575 17.8685 0
110 1 18.0395 12.9644 0
111 1 14.2671 0.945782 0
112 1 12.5851 0.368823 0
113 1 14.1637 22.2308 0
114 1 11.327 11.2779 0
115 1 26.6297 13.6755 0
116 1 4.98792 3.80895 0
117 1 28.6641 24.8967 0
118 1 10.3998 13.3926 0
119 1 23.7026 11.7788 0
120 1 17.8409 6.63861 0
121 1 29.3152 24.0429 0
122 1 8.36989 11.4707 0
123 1 14.1247 26.1059 0
124 1 12.023 14.1081 0
125 1 27.72 14.2615 0
126 1 5.6293 14.2632 0
127 1 6.57697 13.4358 0
128 1 26.9962 11.487 0
129 1 5.39333 11.391 0
130 1 6.69623 15.2799 0
131 1 21.4063 22.4016 0
132 1 3.87312 23.3435 0
133 1 1.18891 23.6721 0
134 1 15.4964 29.8511 0
135 1 11.6878 0.775365 0
136 1 16.7045 20.2352 0
137 1 25.6476 16.2823 0
138 1 29.8339 18.615 0
139 1 11.7811 12.5727 0
140 1 2.75212 29.9631 0
141 1 0.295052 16.9343 0
142 1 10.0364 4.36473 0
143 1 23.4001 28.9589 0
144 1 0.239964 27.9252 0
145 1 9.66971 17.8951 0
146 1 1.81985 10.5147 0
147 1 1.5322 5.35991 0
148 1 12.3357 29.5002 0
149 1 1.9383 0.873165 0
150 1 4.83337 8.16978 0
151 1 10.4785 29.3318 0
152 1 0.338197 10.8758 0
153 1 15.5382 1.43723 0
154 1 17.3992 0.352465 0
155 1 20.9529 4.43642 0
156 1 27.6056 7.06471 0
157 1 10.8741 17.6132 0
158 1 19.5799 4.94257 0
159 1 18.633 11.4286 0
160 1 4.06931 6.82843 0
161 1 15.345 12.8971 0
162 1 24.578 23.4154 0
163 1 8.47262 16.8107 0
164 1 24.4685 27.1123 0
165 1 15.6332 25.0238 0
166 1 10.63 10.1971 0
167 1 26.9885 20.7473 0
168 1 21.9703 26.6838 0
169 1 1.88749 9.10943 0
170 1 27.494 23.4607 0
171 1 9.40417 16.0883 0
172 1 23.1292 23.4832 0
173 1 21.5139 12.0964 0
174 1 16.6373 25.7577 0
175 1 22.9271 14.4328 0
176 1 28.5107 5.20249 0
177 1 28.524 8.83641 0
178 1 14.0223 14.8835 0
179 1 26.1743 10.7042 0
180 1 6.10011 16.1804 0
181 1 28.3857 12.8321 0
182 1 2.79846 8.20239 0
183 1 23.6058 21.2309 0
184 1 25.5831 5.44407 0
185 1 24.1302 13.8426 0
186 1 20.7625 24.5152 0
187 1 0.243814 29.6065 0
188 1 21.8477 19.4384 0
189 1 1.15355 27.0854 0
190 1 29.5702 22.0034 0
191 1 16.259 14.9791 0
192 1 12.2027 3.41896 0
193 1 11.7794 7.73713 0
194 1 20.5158 20.9603 0
ITEM: TIMESTEP
465
ITEM: NUMBER OF ATOMS
194
ITEM: BOX BOUNDS pp pp pp
0.0000000000000000e+00 3.0000000000000000e+01
0.0000000000000000e+00 3.0000000000000000e+01
-5.0000000000000000e-01 5.0000000000000000e-01
ITEM: ATOMS id type x y z
1 1 24.8802 10.1055 0
2 1 21.3111 17.9794 0
3 1 24.2983 24.6635 0
4 1 4.69121 20.1517 0
5 1 1.53509 2.54009 0
6 1 14.312 13.2061 0
7 1 4.05854 3.61718 0
8 1 21.5562 9.22139 0
9 1 9.50816 23.8528 0
10 1 17.184 3.10654 0
11 1 26.397 8.12392 0
12 1 10.231 0.312155 0
13 1 18.4056 5.55437 0
14 1 11.1063 5.92577 0
15 1 27.2192 9.21811 0
16 1 14.4098 9.84764 0
17 1 29.7946 5.24861 0
18 1 21.0095 1.71165 0
19 1 18.1288 23.8892 0
20 1 5.549 7.82342 0
21 1 13.0142 23.3463 0
22 1 12.4027 11.0914 0
23 1 1.20513 12.6509 0
24 1 27.4789 3.79253 0
25 1 23.9222 8.52669 0
26 1 2.60236 24.4064 0
27 1 0.381411 12.1179 0
28 1 19.4284 7.07785 0
29 1 26.3722 2.95436 0
30 1 22.5505 25.5466 0
31 1 9.33604 22.815 0
32 1 18.3305 22.3173 0
33 1 14.298 15.9908 0
34 1 1.78338 25.0694 0
35 1 12.0593 6.97278 0
36 1 27.008 18.1001 0
37 1 27.0668 17.203 0
38 1 14.9231 17.1908 0
39 1 24.767 1.04712 0
40 1 14.0099 29.6334 0
41 1 27.5646 25.8918 0
42 1 29.9238 8.24202 0
43 1 10.9126 20.6643 0
44 1 16.8107 28.5504 0
45 1 28.5099 3.29955 0
46 1 4.0125 2.06351 0
47 1 13.9527 20.2313 0
48 1 12.1326 28.0412 0
49 1 -0.104351 3.90038 0
50 1 0.469198 19.4179 0
51 1 21.9674 17.4297 0
52 1 16.8889 17.4789 0
53 1 20.0945 18.1037 0
54 1 17.1834 23.678 0
55 1 23.5528 18.1544 0
56 1 9.43951 1.13719 0
57 1 12.7841 24.5145 0
58 1 6.18548 5.39509 0
59 1 25.1024 14.0763 0
60 1 25.6299 26.1179 0
61 1 24.5169 12.6226 0
62 1 22.5817 6.3372 0
63 1 26.5525 7.27441 0
64 1 19.6195 8.16997 0
65 1 25.499 25.0685 0
66 1 10.6025 9.17778 0
67 1 17.7793 17.7656 0
68 1 1.65033 17.5529 0
69 1 13.2805 5.29173 0
70 1 5.99341 17.0624 0
71 1 0.722662 5.60079 0
72 1 3.84662 28.7344 0
73 1 5.1799 26.2386 0
74 1 21.0085 15.4136 0
75 1 2.01008 27.7509 0
76 1 19.9837 13.3385 0
77 1 8.40417 28.1181 0
78 1 9.20662 2.11307 0
79 1 8.5872 0.0700853 0
80 1 9.44885 18.7875 0
81 1 17.7983 16.3821 0
82 1 14.7848 20.8831 0
83 1 6.68875 24.6525 0
84 1 17.2482 11.8669 0
85 1 6.41112 29.7804 0
86 1 18.7384 17.3701 0
87 1 12.1652 20.1933 0
88 1 9.11405 26.687 0
89 1 21.1516 23.6933 0
90 1 17.7643 4.49208 0
91 1 6.81161 28.9189 0
92 1 25.4986 17.3625 0
93 1 13.2348 9.73227 0
94 1 25.4451 1.76396 0
95 1 29.4316 20.538 0
96 1 10.5445 24.6195 0
97 1 1.43333 28.4287 0
98 1 4.61457 29.4627 0
99 1 19.4913 29.1848 0
100 1 18.0338 15.0553 0
101 1 11.0947 18.9778 0
102 1 15.388 6.5574 0
103 1 21.662 5.13651 0
104 1 6.77284 19.8416 0
105 1 18.7379 20.7481 0
106 1 0.294842 9.26829 0
107 1 18.3677 2.84623 0
108 1 10.9432 14.7679 0
109 1 13.6488 17.9924 0
110 1 18.6218 12.5964 0
111 1 13.9938 0.966079 0
112 1 12.499 0.530004 0
113 1 14.2279 22.2678 0
114 1 11.5065 11.3684 0
115 1 26.2305 13.65 0
116 1 5.17019 3.84974 0
117 1 28.472 25.063 0
118 1 10.5842 13.2406 0
119 1 23.8069 11.461 0
120 1 17.6032 6.6987 0
121 1 29.4273 23.9972 0
122 1 8.43936 11.8754 0
123 1 13.9418 26.3757 0
124 1 12.1247 14.3558 0
125 1 27.5171 13.9753 0
126 1 5.70282 13.9807 0
127 1 6.63378 12.96 0
128 1 27.1926 11.7326 0
129 1 5.06513 11.3409 0
130 1 6.78623 15.0793 0
131 1 21.5619 22.82 0
132 1 3.22181 23.4366 0
133 1 1.241 23.5625 0
134 1 15.4031 29.5778 0
135 1 11.5133 0.523524 0
136 1 17.0487 20.3417 0
137 1 25.3891 16.2627 0
138 1 29.493 18.3197 0
139 1 12.014 12.8003 0
140 1 2.70181 0.0525997 0
141 1 0.488355 16.9012 0
142 1 9.69867 4.40748 0
143 1 23.8491 29.1236 0
144 1 0.185745 27.4786 0
145 1 10.173 17.9197 0
146 1 1.80427 11.0099 0
147 1 1.8352 5.40447 0
148 1 12.3763 29.1728 0
149 1 2.08644 0.611648 0
150 1 4.87718 8.47435 0
151 1 10.6364 29.4424 0
152 1 0.48975 10.6652 0
153 1 15.4088 1.48533 0
154 1 17.0442 0.265625 0
155 1 21.0262 4.58383 0
156 1 27.2368 6.76686 0
157 1 10.7867 17.3182 0
158 1 20.0932 4.98122 0
159 1 18.9457 11.1931 0
160 1 3.73944 7.08102 0
161 1 15.5118 13.066 0
162 1 24.4253 23.2725 0
163 1 8.12987 17.1557 0
164 1 23.7728 27.0759 0
165 1 15.1831 25.2588 0
166 1 10.6558 10.1786 0
167 1 26.7701 20.6864 0
168 1 22.3083 26.9205 0
169 1 2.05268 8.93009 0
170 1 27.4946 23.7784 0
171 1 9.66305 16.2674 0
172 1 23.1092 23.639 0
173 1 21.3018 12.2768 0
174 1 16.6356 26.2075 0
175 1 22.6515 14.2905 0
176 1 28.3495 5.36988 0
177 1 28.4122 9.0446 0
178 1 14.5311 14.6276 0
179 1 25.9169 10.7257 0
180 1 5.84941 15.9623 0
181 1 28.4135 13.149 0
182 1 3.03987 8.70904 0
183 1 23.7047 20.8884 0
184 1 25.4188 5.29219 0
185 1 23.5554 13.8342 0
186 1 20.3872 24.5259 0
187 1 0.0869751 29.5279 0
188 1 21.7553 19.6482 0
189 1 1.68348 27.0256 0
190 1 29.6826 22.0733 0
191 1 16.0455 14.504 0
192 1 12.1817 3.4767 0
193 1 11.5361 8.43002 0
194 1 20.7702 20.8952 0
ITEM: TIMESTEP
480
ITEM: NUMBER OF ATOMS
194
ITEM: BOX BOUNDS pp pp pp
0.0000000000000000e+00 3.0000000000000000e+01
0.0000000000000000e+00 3.0000000000000000e+01
-5.0000000000000000e-01 5.0000000000000000e-01
ITEM: ATOMS id type x y z
1 1 24.9777 9.95897 0
2 1 21.5947 18.5609 0
3 1 24.1626 24.8185 0
4 1 4.80385 20.2647 0
5 1 1.30427 2.26678 0
6 1 14.4979 12.9481 0
7 1 4.30548 3.32449 0
8 1 21.8617 9.42843 0
9 1 10.014 23.6053 0
10 1 17.2857 2.87137 0
11 1 26.2934 8.35091 0
12 1 9.87002 0.361839 0
13 1 18.6974 5.34703 0
14 1 11.0099 5.82625 0
15 1 26.8806 9.63118 0
16 1 14.2995 9.78081 0
17 1 29.7693 5.20396 0
18 1 21.074 2.00297 0
19 1 18.4729 24.0836 0
20 1 5.50562 7.77556 0
21 1 13.1317 23.4582 0
22 1 12.4249 11.3415 0
23 1 1.04434 12.6972 0
24 1 27.6397 4.09625 0
25 1 24.2746 8.64952 0
26 1 2.86974 24.4969 0
27 1 0.211456 11.5143 0
28 1 19.4712 6.80713 0
29 1 25.9949 2.66585 0
30 1 22.3318 25.7205 0
31 1 9.57724 22.8624 0
32 1 18.6501 22.3595 0
33 1 14.3029 16.164 0
34 1 1.6673 25.1236 0
35 1 12.0931 6.88787 0
36 1 27.7886 18.317 0
37 1 26.8293 16.9541 0
38 1 14.9052 16.9405 0
39 1 25.2951 1.00408 0
40 1 13.8362 29.7494 0
41 1 27.6656 26.1296 0
42 1 29.8258 8.44938 0
43 1 10.576 20.7719 0
44 1 17.069 28.6989 0
45 1 28.1171 3.33055 0
46 1 3.98931 1.903 0
47 1 13.7505 19.8866 0
48 1 12.6332 27.7572 0
49 1 29.6293 3.81366 0
50 1 0.311352 19.5104 0
51 1 22.2661 17.5649 0
52 1 16.8123 17.6063 0
53 1 20.1849 18.2628 0
54 1 17.4428 23.2512 0
55 1 23.4115 17.7181 0
56 1 9.38514 1.08242 0
57 1 12.685 24.4551 0
58 1 6.01593 4.96997 0
59 1 25.1167 13.8845 0
60 1 25.8769 26.4595 0
61 1 24.1357 12.7987 0
62 1 22.701 6.28913 0
63 1 26.4674 7.25424 0
64 1 19.2198 8.65653 0
65 1 25.5244 24.8257 0
66 1 10.5321 9.24414 0
67 1 17.9853 17.7277 0
68 1 1.46891 17.5921 0
69 1 13.2052 5.24893 0
70 1 5.8085 16.875 0
71 1 0.754059 5.193 0
72 1 3.71129 28.9936 0
73 1 5.38156 26.1165 0
74 1 21.3902 15.545 0
75 1 2.26816 27.7236 0
76 1 19.8222 13.3403 0
77 1 8.66794 27.8842 0
78 1 8.99782 1.96946 0
79 1 9.14085 29.7797 0
80 1 9.49884 18.7152 0
81 1 17.4037 16.5367 0
82 1 15.0476 20.8089 0
83 1 6.67255 24.4487 0
84 1 17.3333 11.9131 0
85 1 6.17463 29.6894 0
86 1 18.9729 17.5571 0
87 1 12.5232 20.5475 0
88 1 8.8488 27.1402 0
89 1 20.8629 23.798 0
90 1 17.4913 4.46617 0
91 1 6.65271 28.7111 0
92 1 25.7075 17.2768 0
93 1 13.0874 9.56862 0
94 1 25.6416 1.98164 0
95 1 29.3711 20.3685 0
96 1 10.5238 24.4117 0
97 1 1.49253 28.4325 0
98 1 4.86448 29.695 0
99 1 19.6166 29.0385 0
100 1 17.6194 14.9886 0
101 1 10.7476 18.8807 0
102 1 15.5136 7.04573 0
103 1 21.6771 5.51691 0
104 1 6.82777 20.1068 0
105 1 18.9601 20.6003 0
106 1 0.457947 9.76242 0
107 1 18.2994 2.56313 0
108 1 10.9125 14.3427 0
109 1 13.7249 18.115 0
110 1 19.205 12.2255 0
111 1 13.721 0.981574 0
112 1 12.5412 0.672767 0
113 1 14.2919 22.3028 0
114 1 11.3613 11.5459 0
115 1 25.9033 13.6004 0
116 1 5.35075 3.89068 0
117 1 28.2777 25.2284 0
118 1 10.772 13.0901 0
119 1 23.9142 11.1457 0
120 1 17.3665 6.75918 0
121 1 29.5376 23.9532 0
122 1 8.50857 12.2804 0
123 1 13.7598 26.6445 0
124 1 12.2211 14.6027 0
125 1 27.3123 13.6849 0
126 1 5.78066 13.6973 0
127 1 6.68805 12.4871 0
128 1 27.3878 11.9777 0
129 1 4.73705 11.2908 0
130 1 6.87148 14.88 0
131 1 21.7548 23.1762 0
132 1 2.57127 23.5106 0
133 1 1.29526 23.4555 0
134 1 15.3074 29.3054 0
135 1 11.208 0.286618 0
136 1 17.3939 20.4485 0
137 1 25.1308 16.2427 0
138 1 29.1546 18.0259 0
139 1 12.2441 13.0277 0
140 1 2.9689 29.8471 0
141 1 0.684455 16.8709 0
142 1 9.36116 4.45031 0
143 1 24.2982 29.2883 0
144 1 0.13608 27.0329 0
145 1 10.4501 18.1145 0
146 1 1.78367 11.505 0
147 1 2.15255 5.44 0
148 1 12.4145 28.8443 0
149 1 1.91822 0.643813 0
150 1 4.73073 8.92702 0
151 1 10.8517 29.3339 0
152 1 0.66054 10.5277 0
153 1 15.2774 1.53165 0
154 1 16.688 0.177504 0
155 1 20.9402 4.24426 0
156 1 27.2198 6.25527 0
157 1 10.9179 16.8332 0
158 1 20.3812 5.19549 0
159 1 19.257 10.9612 0
160 1 3.41013 7.33532 0
161 1 15.6719 13.2296 0
162 1 24.2685 23.1346 0
163 1 7.78844 17.5003 0
164 1 23.3115 27.0252 0
165 1 14.7332 25.4954 0
166 1 10.6866 10.2086 0
167 1 26.5518 20.6254 0
168 1 22.4125 27.1676 0
169 1 2.19285 8.75534 0
170 1 27.4966 24.098 0
171 1 9.92327 16.4495 0
172 1 23.0931 23.795 0
173 1 21.0886 12.4581 0
174 1 16.6327 26.6565 0
175 1 22.2697 14.203 0
176 1 28.1906 5.53678 0
177 1 28.3021 9.25266 0
178 1 15.0369 14.3704 0
179 1 25.6585 10.7474 0
180 1 5.60157 15.7386 0
181 1 28.438 13.468 0
182 1 3.30641 9.21079 0
183 1 23.8034 20.5458 0
184 1 25.2548 5.14053 0
185 1 23.0899 13.7697 0
186 1 20.012 24.5365 0
187 1 29.9313 29.4482 0
188 1 21.6613 19.8582 0
189 1 1.97721 26.4515 0
190 1 29.7949 22.1416 0
191 1 15.8357 14.0343 0
192 1 12.1609 3.53468 0
193 1 11.459 9.08345 0
194 1 21.0258 20.8287 0
ITEM: TIMESTEP
495
ITEM: NUMBER OF ATOMS
194
ITEM: BOX BOUNDS pp pp pp
0.0000000000000000e+00 3.0000000000000000e+01
0.0000000000000000e+00 3.0000000000000000e+01
-5.0000000000000000e-01 5.0000000000000000e-01
ITEM: ATOMS id type x y z
1 1 25.0617 9.79427 0
2 1 21.8094 19.2055 0
3 1 24.0287 24.9706 0
4 1 4.91686 20.3778 0
5 1 1.07375 1.9925 0
6 1 14.6882 12.6936 0
7 1 4.55556 3.03107 0
8 1 22.1672 9.63546 0
9 1 10.4491 23.3506 0
10 1 17.3654 2.64562 0
11 1 26.1764 8.66248 0
12 1 9.92905 0.30764 0
13 1 18.9886 5.13967 0
14 1 10.9153 5.72825 0
15 1 26.5415 10.0413 0
16 1 14.1838 9.71314 0
17 1 29.5654 5.13196 0
18 1 21.1384 2.2946 0
19 1 18.816 24.2753 0
20 1 5.46174 7.72854 0
21 1 13.2528 23.5647 0
22 1 12.6333 11.5452 0
23 1 0.884507 12.7386 0
24 1 27.681 4.55649 0
25 1 24.6288 8.775 0
26 1 3.13338 24.6244 0
27 1 -0.0536943 10.9877 0
28 1 19.5135 6.53549 0
29 1 25.9822 3.05935 0
30 1 22.1142 25.8979 0
31 1 9.52847 22.4811 0
32 1 18.9676 22.4034 0
33 1 14.2047 16.2297 0
34 1 1.55346 25.1749 0
35 1 12.1252 6.80108 0
36 1 28.5421 18.567 0
37 1 26.614 16.6908 0
38 1 14.99 16.7982 0
39 1 25.8062 0.756362 0
40 1 13.6617 29.8704 0
41 1 27.7626 26.3734 0
42 1 29.7287 8.66095 0
43 1 10.24 20.8787 0
44 1 17.3261 28.8494 0
45 1 27.8464 3.20834 0
46 1 3.96674 1.7452 0
47 1 13.5473 19.5438 0
48 1 13.1179 27.4916 0
49 1 29.3616 3.73088 0
50 1 0.15055 19.6045 0
51 1 22.5438 17.6471 0
52 1 16.7331 17.7287 0
53 1 20.2754 18.4206 0
54 1 17.7045 22.8241 0
55 1 23.3588 17.2643 0
56 1 9.1884 1.15955 0
57 1 12.5834 24.4002 0
58 1 5.87647 4.59953 0
59 1 24.7289 13.8356 0
60 1 26.1243 26.799 0
61 1 23.7539 12.9782 0
62 1 22.8165 6.23827 0
63 1 26.3898 7.15853 0
64 1 18.8203 9.14211 0
65 1 25.5463 24.5842 0
66 1 10.0643 9.38955 0
67 1 18.1522 17.6953 0
68 1 1.3063 17.6557 0
69 1 13.1292 5.2062 0
70 1 5.62342 16.6847 0
71 1 0.964957 4.80887 0
72 1 3.72553 29.0858 0
73 1 5.58338 25.9941 0
74 1 21.7728 15.6751 0
75 1 2.61532 27.6503 0
76 1 19.6604 13.3367 0
77 1 8.71035 28.4804 0
78 1 8.70509 2.00141 0
79 1 9.50806 29.2825 0
80 1 9.55399 18.6425 0
81 1 17.01 16.6971 0
82 1 15.3081 20.7347 0
83 1 6.65618 24.2451 0
84 1 17.4189 11.9596 0
85 1 5.87929 29.7872 0
86 1 19.2515 17.7374 0
87 1 12.8833 20.8999 0
88 1 8.80506 26.7644 0
89 1 20.5563 23.9245 0
90 1 17.2203 4.4402 0
91 1 6.58579 28.3103 0
92 1 25.8923 17.2008 0
93 1 12.9431 9.40621 0
94 1 25.4907 1.72197 0
95 1 29.3132 20.1972 0
96 1 10.8642 24.6398 0
97 1 1.47506 28.5181 0
98 1 5.07778 29.9297 0
99 1 19.7419 28.8922 0
100 1 17.2041 14.9238 0
101 1 10.5433 19.2045 0
102 1 15.6399 7.53392 0
103 1 21.6963 5.90264 0
104 1 6.88233 20.372 0
105 1 19.1805 20.4532 0
106 1 0.457749 9.61059 0
107 1 18.2533 2.27256 0
108 1 10.8859 13.9162 0
109 1 13.8021 18.2374 0
110 1 19.7907 11.8539 0
111 1 13.4569 0.993733 0
112 1 12.5757 0.811165 0
113 1 14.3553 22.3376 0
114 1 11.0286 11.7705 0
115 1 25.9798 13.4055 0
116 1 5.49733 3.87465 0
117 1 28.085 25.3834 0
118 1 10.9639 12.9395 0
119 1 24.0241 10.8302 0
120 1 17.1299 6.81912 0
121 1 29.6477 23.909 0
122 1 8.57724 12.6854 0
123 1 13.595 26.8926 0
124 1 12.3131 14.8469 0
125 1 27.1065 13.3924 0
126 1 5.86117 13.4134 0
127 1 6.74132 12.0162 0
128 1 27.5827 12.2248 0
129 1 4.40905 11.2406 0
130 1 6.95349 14.681 0
131 1 21.968 23.5124 0
132 1 2.04147 23.5752 0
133 1 1.22797 23.3246 0
134 1 15.2113 29.0344 0
135 1 10.9122 0.121731 0
136 1 17.7411 20.5557 0
137 1 24.875 16.2257 0
138 1 28.8438 17.7012 0
139 1 12.4706 13.2553 0
140 1 3.10169 29.7988 0
141 1 0.861089 16.8167 0
142 1 9.02384 4.49327 0
143 1 24.7476 29.4533 0
144 1 0.087624 26.5875 0
145 1 10.5724 17.8945 0
146 1 1.75673 12.0008 0
147 1 2.46639 5.47516 0
148 1 12.4522 28.5188 0
149 1 1.73718 0.687691 0
150 1 4.5813 9.37927 0
151 1 11.0544 29.1555 0
152 1 1.09358 10.9595 0
153 1 15.1448 1.57686 0
154 1 16.3307 0.0867879 0
155 1 21.0159 3.75282 0
156 1 27.178 5.74625 0
157 1 11.0961 16.3442 0
158 1 20.5055 5.55962 0
159 1 19.568 10.7343 0
160 1 3.08052 7.59119 0
161 1 15.7062 12.7727 0
162 1 24.1079 23.0004 0
163 1 7.44709 17.8448 0
164 1 23.6248 26.9133 0
165 1 14.2817 25.7341 0
166 1 10.7319 10.2977 0
167 1 26.3335 20.5645 0
168 1 21.7415 27.4717 0
169 1 2.3304 8.58123 0
170 1 27.501 24.4213 0
171 1 10.1434 16.6302 0
172 1 23.0797 23.9498 0
173 1 20.8729 12.6407 0
174 1 16.6297 27.1058 0
175 1 21.7102 14.209 0
176 1 28.0642 5.69229 0
177 1 28.1901 9.46089 0
178 1 15.0661 14.3245 0
179 1 25.4125 10.7848 0
180 1 5.35627 15.5161 0
181 1 28.4591 13.7868 0
182 1 3.57872 9.71027 0
183 1 23.9019 20.2032 0
184 1 25.091 4.989 0
185 1 22.8042 13.6106 0
186 1 19.6384 24.5469 0
187 1 29.7763 29.3682 0
188 1 21.5885 20.0285 0
189 1 2.25873 25.8418 0
190 1 29.9072 22.2101 0
191 1 16.2241 13.9711 0
192 1 12.1403 3.593 0
193 1 11.7682 9.60142 0
194 1 21.258 20.8083 0
ITEM: TIMESTEP
510
ITEM: NUMBER OF ATOMS
194
ITEM: BOX BOUNDS pp pp pp
0.0000000000000000e+00 3.0000000000000000e+01
0.0000000000000000e+00 3.0000000000000000e+01
-5.0000000000000000e-01 5.0000000000000000e-01
ITEM: ATOMS id type x y z
1 1 25.1615 9.68384 0
2 1 22.2027 19.3405 0
3 1 23.894 25.1195 0
4 1 5.03033 20.4908 0
5 1 0.844644 1.71555 0
6 1 14.8294 12.4427 0
7 1 4.80445 2.73405 0
8 1 22.473 9.84261 0
9 1 10.9655 23.2073 0
10 1 17.3692 2.45275 0
11 1 26.0569 8.97657 0
12 1 9.91168 0.411635 0
13 1 19.2819 4.93507 0
14 1 10.8219 5.63116 0
15 1 26.1967 10.4493 0
16 1 14.0629 9.64429 0
17 1 29.3608 5.05647 0
18 1 21.2092 2.54187 0
19 1 18.6104 24.2757 0
20 1 5.41733 7.68225 0
21 1 13.3803 23.6631 0
22 1 12.8393 11.7498 0
23 1 0.722982 12.7784 0
24 1 27.7562 4.98479 0
25 1 24.9641 8.83149 0
26 1 3.39297 24.7517 0
27 1 29.5896 10.5171 0
28 1 19.5576 6.25898 0
29 1 25.978 3.46967 0
30 1 21.8973 26.077 0
31 1 9.40032 21.9903 0
32 1 19.2808 22.4489 0
33 1 13.9868 16.1889 0
34 1 1.39767 25.1909 0
35 1 12.1565 6.71265 0
36 1 29.2104 18.9548 0
37 1 26.5717 16.3035 0
38 1 15.1948 16.7632 0
39 1 26.3259 0.290571 0
40 1 13.4852 29.9932 0
41 1 27.8525 26.6349 0
42 1 29.6305 8.87418 0
43 1 9.90375 20.9856 0
44 1 17.5817 29.0009 0
45 1 27.5789 3.08385 0
46 1 3.94563 1.58999 0
47 1 13.3433 19.2009 0
48 1 13.1658 27.8014 0
49 1 29.0926 3.65169 0
50 1 0.0435595 19.6648 0
51 1 22.5726 17.8078 0
52 1 16.655 17.8646 0
53 1 20.3639 18.577 0
54 1 17.9711 22.3962 0
55 1 23.5549 16.7326 0
56 1 9.07223 1.08046 0
57 1 12.4751 24.3528 0
58 1 5.96663 4.66132 0
59 1 24.324 13.7884 0
60 1 26.3729 27.138 0
61 1 23.3874 13.1557 0
62 1 22.9279 6.1861 0
63 1 26.3128 7.06373 0
64 1 18.4212 9.62842 0
65 1 25.5664 24.3432 0
66 1 9.59383 9.52439 0
67 1 18.3062 17.662 0
68 1 1.18949 17.8002 0
69 1 13.0525 5.16351 0
70 1 5.43752 16.4897 0
71 1 1.17466 4.42559 0
72 1 4.00873 28.8719 0
73 1 5.78541 25.8714 0
74 1 22.1558 15.8029 0
75 1 2.96035 27.5788 0
76 1 19.502 13.3284 0
77 1 8.72054 29.0822 0
78 1 8.32751 2.19605 0
79 1 9.81975 28.6795 0
80 1 9.61541 18.5681 0
81 1 16.6197 16.8447 0
82 1 15.568 20.6608 0
83 1 6.63963 24.0418 0
84 1 17.5042 12.0063 0
85 1 6.0488 29.8001 0
86 1 19.5411 17.9191 0
87 1 13.245 21.2506 0
88 1 8.76413 26.375 0
89 1 20.273 24.0283 0
90 1 16.95 4.41368 0
91 1 6.5181 27.9114 0
92 1 25.9008 17.246 0
93 1 12.8019 9.24496 0
94 1 25.3221 1.66271 0
95 1 29.2003 20.0577 0
96 1 11.2047 24.8644 0
97 1 1.45988 28.6023 0
98 1 4.82465 0.246544 0
99 1 19.8672 28.7458 0
100 1 16.7901 14.8693 0
101 1 10.3496 19.5809 0
102 1 15.7674 8.02148 0
103 1 21.7143 6.288 0
104 1 6.93644 20.6373 0
105 1 19.3981 20.3068 0
106 1 0.452807 9.4461 0
107 1 18.2828 1.95005 0
108 1 10.8432 13.5949 0
109 1 13.8796 18.3613 0
110 1 20.3793 11.4861 0
111 1 13.4235 1.0499 0
112 1 12.3818 0.902299 0
113 1 14.4178 22.3726 0
114 1 10.6878 11.9666 0
115 1 26.0446 13.2077 0
116 1 5.41402 3.42679 0
117 1 27.9074 25.5369 0
118 1 11.1861 12.7102 0
119 1 24.1396 10.5125 0
120 1 16.8922 6.87952 0
121 1 29.7594 23.8633 0
122 1 8.64558 13.0904 0
123 1 13.8785 26.6957 0
124 1 12.4035 15.0892 0
125 1 26.9298 13.0958 0
126 1 5.94331 13.1296 0
127 1 6.79416 11.5467 0
128 1 27.7769 12.4755 0
129 1 4.08062 11.1884 0
130 1 7.03381 14.4814 0
131 1 22.1751 23.8487 0
132 1 2.02077 23.7693 0
133 1 0.650375 23.0681 0
134 1 15.1163 28.7654 0
135 1 10.7869 -0.000388516 0
136 1 18.0915 20.663 0
137 1 24.6214 16.2121 0
138 1 28.6197 17.2407 0
139 1 12.6939 13.4832 0
140 1 2.96554 0.0583031 0
141 1 0.991547 16.6821 0
142 1 8.68665 4.53628 0
143 1 25.1981 29.6195 0
144 1 0.0394805 26.1419 0
145 1 10.679 17.6252 0
146 1 1.72854 12.4928 0
147 1 2.7788 5.50993 0
148 1 12.4457 28.2296 0
149 1 1.55617 0.733033 0
150 1 4.53029 9.7863 0
151 1 11.2554 28.8829 0
152 1 1.6259 11.3517 0
153 1 15.0117 1.62118 0
154 1 15.9726 -0.00646498 0
155 1 21.0849 3.30718 0
156 1 26.9084 5.28925 0
157 1 11.3367 15.8502 0
158 1 20.6308 5.92592 0
159 1 19.8786 10.5084 0
160 1 2.80755 7.75403 0
161 1 15.7677 12.2006 0
162 1 23.9444 22.8694 0
163 1 7.10571 18.1893 0
164 1 23.937 26.8006 0
165 1 13.861 25.8079 0
166 1 10.7858 10.3972 0
167 1 26.115 20.5035 0
168 1 21.0712 27.7741 0
169 1 2.4127 8.50152 0
170 1 27.4964 24.7288 0
171 1 10.2998 16.815 0
172 1 23.0752 24.1061 0
173 1 20.6516 12.8234 0
174 1 16.6268 27.5557 0
175 1 21.1486 14.2172 0
176 1 28.131 5.83118 0
177 1 28.0781 9.66902 0
178 1 14.9481 14.3429 0
179 1 25.1741 10.8361 0
180 1 5.1129 15.2975 0
181 1 28.4764 14.104 0
182 1 3.75193 10.2549 0
183 1 24.0003 19.8605 0
184 1 24.9275 4.83729 0
185 1 22.5085 13.4557 0
186 1 19.7922 24.7686 0
187 1 29.622 29.2879 0
188 1 21.5173 20.2641 0
189 1 2.58418 25.2647 0
190 1 30.0204 22.2805 0
191 1 16.7806 13.9458 0
192 1 12.12 3.65192 0
193 1 12.0742 10.1229 0
194 1 21.3095 21.2299 0
ITEM: TIMESTEP
525
ITEM: NUMBER OF ATOMS
194
ITEM: BOX BOUNDS pp pp pp
0.0000000000000000e+00 3.0000000000000000e+01
0.0000000000000000e+00 3.0000000000000000e+01
-5.0000000000000000e-01 5.0000000000000000e-01
ITEM: ATOMS id type x y z
1 1 25.3111 9.86992 0
2 1 22.6542 19.3389 0
3 1 23.7567 25.2655 0
4 1 5.14434 20.6039 0
5 1 0.61626 1.43694 0
6 1 14.8921 12.2073 0
7 1 4.91284 2.26241 0
8 1 22.7796 10.0501 0
9 1 11.4821 23.0654 0
10 1 17.3452 2.27421 0
11 1 25.9741 9.28306 0
12 1 9.72535 0.565033 0
13 1 19.5771 4.73531 0
14 1 10.7296 5.5346 0
15 1 25.8677 10.8477 0
16 1 13.9372 9.57412 0
17 1 29.1517 4.97911 0
18 1 21.3905 2.09759 0
19 1 18.257 24.2226 0
20 1 5.37283 7.63613 0
21 1 13.5079 23.7607 0
22 1 13.0443 11.9548 0
23 1 0.548492 12.8215 0
24 1 27.9364 5.16618 0
25 1 25.2132 8.60865 0
26 1 3.82053 24.8143 0
27 1 29.2349 10.0413 0
28 1 19.6021 5.97745 0
29 1 25.9746 3.88064 0
30 1 21.6805 26.2564 0
31 1 9.16115 21.6929 0
32 1 19.5896 22.495 0
33 1 13.7705 16.1484 0
34 1 1.23072 25.1987 0
35 1 12.1872 6.62275 0
36 1 29.6419 19.0806 0
37 1 26.5508 15.8969 0
38 1 15.3952 16.7268 0
39 1 26.841 -0.175903 0
40 1 13.3064 0.103208 0
41 1 27.9397 26.9032 0
42 1 29.491 9.06625 0
43 1 9.68005 20.8965 0
44 1 17.8362 29.1518 0
45 1 27.3116 2.96123 0
46 1 3.92741 1.43527 0
47 1 13.0959 18.9068 0
48 1 13.5011 27.9402 0
49 1 28.8225 3.57586 0
50 1 0.30259 19.9107 0
51 1 22.5993 17.9704 0
52 1 16.578 18.0287 0
53 1 20.475 18.7538 0
54 1 18.2427 21.9675 0
55 1 23.6155 16.2319 0
56 1 8.92687 1.02139 0
57 1 12.364 24.3067 0
58 1 6.06474 4.73872 0
59 1 23.9294 13.7467 0
60 1 26.6235 27.4761 0
61 1 23.1351 13.2891 0
62 1 23.0343 6.13428 0
63 1 26.236 6.96894 0
64 1 18.0229 10.1154 0
65 1 25.586 24.1024 0
66 1 9.12581 9.66113 0
67 1 18.4627 17.6295 0
68 1 1.07646 17.9543 0
69 1 12.9747 5.12082 0
70 1 5.25032 16.2897 0
71 1 1.38398 4.04274 0
72 1 4.29113 28.6594 0
73 1 5.98768 25.7487 0
74 1 22.5401 15.931 0
75 1 3.30549 27.5088 0
76 1 19.3488 13.3181 0
77 1 8.70518 29.6796 0
78 1 7.95131 2.3889 0
79 1 10.1623 28.0855 0
80 1 9.68242 18.4946 0
81 1 16.2329 16.9644 0
82 1 15.8276 20.5873 0
83 1 6.62292 23.8389 0
84 1 17.5885 12.0535 0
85 1 6.25393 29.8042 0
86 1 19.8038 18.0804 0
87 1 13.6084 21.6023 0
88 1 8.72321 25.9857 0
89 1 20.1012 23.9657 0
90 1 16.6799 4.38687 0
91 1 6.45022 27.5128 0
92 1 25.8863 17.3095 0
93 1 12.6653 9.08638 0
94 1 25.1547 1.60242 0
95 1 28.958 19.9948 0
96 1 11.5484 25.0858 0
97 1 1.44529 28.6866 0
98 1 4.53319 0.571857 0
99 1 19.9586 28.6374 0
100 1 16.3801 14.9054 0
101 1 10.1525 19.9558 0
102 1 15.896 8.50797 0
103 1 21.7362 6.67274 0
104 1 6.99 20.9024 0
105 1 19.6124 20.1614 0
106 1 0.486078 9.30815 0
107 1 18.3401 1.61359 0
108 1 10.7617 13.4022 0
109 1 14.0007 18.4364 0
110 1 20.97 11.1244 0
111 1 13.4813 1.13639 0
112 1 12.0996 0.975155 0
113 1 14.4782 22.4071 0
114 1 10.2639 12.0207 0
115 1 25.9001 13.0377 0
116 1 5.46104 3.1349 0
117 1 27.8121 25.8471 0
118 1 11.5332 12.4928 0
119 1 24.2439 10.1824 0
120 1 16.6534 6.94099 0
121 1 29.8609 23.8363 0
122 1 8.71391 13.4954 0
123 1 14.1112 27.0405 0
124 1 12.4997 15.3301 0
125 1 26.9455 12.7805 0
126 1 6.02648 12.846 0
127 1 6.84669 11.078 0
128 1 27.9879 12.7188 0
129 1 3.90151 11.5866 0
130 1 7.11338 14.2809 0
131 1 22.2329 24.1472 0
132 1 2.0039 23.9687 0
133 1 0.24962 23.0993 0
134 1 15.0225 28.4982 0
135 1 10.8584 29.8036 0
136 1 18.4459 20.7708 0
137 1 24.505 16.1676 0
138 1 28.396 16.7798 0
139 1 12.9152 13.7111 0
140 1 2.82941 0.31805 0
141 1 1.11787 16.538 0
142 1 8.34954 4.57922 0
143 1 25.6524 29.7881 0
144 1 -0.00766691 25.6951 0
145 1 10.9237 17.632 0
146 1 1.71363 12.9774 0
147 1 3.09074 5.54461 0
148 1 12.1322 28.1441 0
149 1 1.37618 0.778858 0
150 1 4.69287 10.0817 0
151 1 11.4437 28.6179 0
152 1 2.15733 11.7477 0
153 1 14.8775 1.66442 0
154 1 15.6131 29.8982 0
155 1 21.0432 3.55322 0
156 1 26.4605 4.92466 0
157 1 11.5706 15.3583 0
158 1 20.7549 6.29241 0
159 1 20.1872 10.2798 0
160 1 2.7773 7.49043 0
161 1 15.9086 11.6142 0
162 1 23.7794 22.741 0
163 1 6.76429 18.5339 0
164 1 24.2489 26.6865 0
165 1 13.5189 25.3019 0
166 1 10.8419 10.4959 0
167 1 25.8964 20.4424 0
168 1 20.435 28.0379 0
169 1 2.2523 8.84842 0
170 1 27.4101 24.8733 0
171 1 10.3168 16.7252 0
172 1 23.2241 24.3022 0
173 1 20.426 13.0074 0
174 1 16.6241 28.0068 0
175 1 20.5878 14.2219 0
176 1 28.2748 6.12137 0
177 1 27.9678 9.87729 0
178 1 14.8314 14.3608 0
179 1 24.9304 10.8988 0
180 1 4.87128 15.0839 0
181 1 28.4925 14.42 0
182 1 3.56181 10.4603 0
183 1 24.098 19.5176 0
184 1 24.7652 4.68483 0
185 1 22.0867 13.3405 0
186 1 19.9826 25.2087 0
187 1 29.4682 29.2075 0
188 1 21.4361 20.4752 0
189 1 2.75007 24.7566 0
190 1 -0.0356007 22.0443 0
191 1 17.3312 13.8295 0
192 1 12.1 3.71172 0
193 1 12.3761 10.6452 0
194 1 21.3127 21.8103 0
ITEM: TIMESTEP
540
ITEM: NUMBER OF ATOMS
194
ITEM: BOX BOUNDS pp pp pp
0.0000000000000000e+00 3.0000000000000000e+01
0.0000000000000000e+00 3.0000000000000000e+01
-5.0000000000000000e-01 5.0000000000000000e-01
ITEM: ATOMS id type x y z
1 1 25.3023 10.213 0
2 1 23.1071 19.3348 0
3 1 23.6256 25.4311 0
4 1 5.25902 20.7171 0
5 1 0.343747 1.19018 0
6 1 14.9513 11.9725 0
7 1 4.94503 1.68866 0
8 1 23.0891 10.2579 0
9 1 12.0002 22.9261 0
10 1 17.3235 2.09413 0
11 1 26.0888 9.46008 0
12 1 9.66567 0.641823 0
13 1 19.8734 4.5406 0
14 1 10.6381 5.43834 0
15 1 25.6492 11.2391 0
16 1 13.8072 9.50266 0
17 1 28.9425 4.89941 0
18 1 21.5768 1.62542 0
19 1 17.9051 24.1693 0
20 1 5.32832 7.59004 0
21 1 13.6314 23.8613 0
22 1 13.2467 12.1587 0
23 1 0.375399 12.8651 0
24 1 28.0838 5.26633 0
25 1 25.4317 8.3569 0
26 1 4.3562 24.8493 0
27 1 28.7663 9.80874 0
28 1 19.6496 5.69196 0
29 1 25.8132 3.90223 0
30 1 21.4634 26.4355 0
31 1 8.72009 21.7337 0
32 1 19.8966 22.5416 0
33 1 13.5534 16.1069 0
34 1 1.06326 25.2043 0
35 1 12.218 6.53131 0
36 1 29.8195 18.9234 0
37 1 26.5288 15.4926 0
38 1 15.2279 16.5587 0
39 1 27.351 29.3574 0
40 1 13.1232 0.197189 0
41 1 28.0261 27.1864 0
42 1 29.43 9.00037 0
43 1 9.4271 20.8212 0
44 1 18.0901 29.3019 0
45 1 27.0444 2.84045 0
46 1 3.77151 1.46863 0
47 1 12.8057 18.6468 0
48 1 13.8316 28.0991 0
49 1 28.5512 3.50329 0
50 1 0.826724 20.4257 0
51 1 22.6266 18.1364 0
52 1 16.5022 18.198 0
53 1 20.6544 19.0013 0
54 1 18.4992 21.5946 0
55 1 23.6398 15.8155 0
56 1 8.65414 1.06286 0
57 1 12.2575 24.2576 0
58 1 6.16255 4.81488 0
59 1 23.6893 13.7922 0
60 1 26.8774 27.8127 0
61 1 22.7728 13.3274 0
62 1 23.1373 6.08362 0
63 1 26.1593 6.8743 0
64 1 17.6247 10.603 0
65 1 25.6055 23.8618 0
66 1 8.65836 9.79822 0
67 1 18.6222 17.5982 0
68 1 0.962589 18.1058 0
69 1 12.8954 5.07804 0
70 1 5.06152 16.0845 0
71 1 1.5933 3.66003 0
72 1 4.57204 28.4458 0
73 1 6.19014 25.6263 0
74 1 22.5707 16.044 0
75 1 3.65208 27.4409 0
76 1 19.1937 13.3096 0
77 1 8.69262 0.252257 0
78 1 7.57599 2.58069 0
79 1 10.5086 27.4944 0
80 1 9.75258 18.4216 0
81 1 16.212 17.2095 0
82 1 16.087 20.5139 0
83 1 6.60608 23.6363 0
84 1 17.6721 12.1009 0
85 1 6.45817 29.8085 0
86 1 19.9941 18.1719 0
87 1 13.9363 21.9227 0
88 1 8.68229 25.5964 0
89 1 19.9359 23.8861 0
90 1 16.4098 4.35986 0
91 1 6.38206 27.1135 0
92 1 25.8721 17.3702 0
93 1 12.5318 8.93152 0
94 1 24.9876 1.54159 0
95 1 28.7052 19.9453 0
96 1 11.8935 25.3072 0
97 1 1.43072 28.7714 0
98 1 4.3818 0.711124 0
99 1 19.5595 29.1309 0
100 1 15.9684 14.9462 0
101 1 10.1854 19.9761 0
102 1 16.025 8.99365 0
103 1 21.7791 7.06332 0
104 1 7.04309 21.1673 0
105 1 19.8239 20.017 0
106 1 0.552816 9.18442 0
107 1 18.395 1.2788 0
108 1 10.6779 13.2111 0
109 1 14.1646 18.4771 0
110 1 21.5591 10.7619 0
111 1 13.5407 1.24068 0
112 1 11.8222 1.0459 0
113 1 14.5733 22.4739 0
114 1 9.83588 12.0692 0
115 1 25.7094 12.8757 0
116 1 5.58053 2.94175 0
117 1 27.7377 26.1945 0
118 1 11.8896 12.2775 0
119 1 24.308 9.8209 0
120 1 16.4141 7.00337 0
121 1 29.7786 24.1706 0
122 1 8.78191 13.9006 0
123 1 14.362 27.3616 0
124 1 12.6963 15.5732 0
125 1 26.9885 12.4611 0
126 1 6.11028 12.5626 0
127 1 6.89893 10.6097 0
128 1 28.2179 12.9585 0
129 1 3.81097 12.2591 0
130 1 7.19318 14.0795 0
131 1 22.198 24.4269 0
132 1 1.92769 24.1398 0
133 1 0.150611 23.0066 0
134 1 14.928 28.2309 0
135 1 10.9303 29.6049 0
136 1 18.823 20.8217 0
137 1 24.7796 16.0549 0
138 1 28.1721 16.3186 0
139 1 13.1358 13.9392 0
140 1 2.69354 0.579707 0
141 1 1.24419 16.3974 0
142 1 8.01222 4.62198 0
143 1 26.1114 29.9574 0
144 1 29.9486 25.2458 0
145 1 11.2251 17.7454 0
146 1 1.69905 13.457 0
147 1 3.40245 5.57964 0
148 1 12.1742 27.8023 0
149 1 1.24257 0.791691 0
150 1 4.85821 10.3752 0
151 1 11.2599 28.618 0
152 1 2.68884 12.1477 0
153 1 14.7408 1.70602 0
154 1 15.2526 29.801 0
155 1 20.9958 3.8277 0
156 1 26.1676 4.95134 0
157 1 11.7059 14.8646 0
158 1 20.8582 6.65019 0
159 1 20.4973 10.0526 0
160 1 2.74956 7.22187 0
161 1 16.0534 11.0277 0
162 1 23.6137 22.6143 0
163 1 6.42286 18.8786 0
164 1 24.5601 26.5701 0
165 1 13.1744 24.7921 0
166 1 10.8995 10.596 0
167 1 25.6775 20.3812 0
168 1 20.289 27.6996 0
169 1 2.08889 9.2003 0
170 1 27.3003 24.9673 0
171 1 10.2755 16.53 0
172 1 23.461 24.4985 0
173 1 20.2056 13.1936 0
174 1 16.621 28.4594 0
175 1 20.0255 14.2214 0
176 1 28.4516 6.48993 0
177 1 27.8596 10.086 0
178 1 14.7157 14.3792 0
179 1 24.6059 11.0011 0
180 1 4.63139 14.8752 0
181 1 28.5082 14.7353 0
182 1 3.27845 10.3936 0
183 1 24.1927 19.1745 0
184 1 24.6064 4.53105 0
185 1 21.6184 13.2333 0
186 1 20.1654 25.6637 0
187 1 29.3147 29.1272 0
188 1 21.3551 20.6872 0
189 1 2.86279 24.3072 0
190 1 29.7918 21.5721 0
191 1 17.8822 13.7077 0
192 1 12.0808 3.77288 0
193 1 12.678 11.1683 0
194 1 21.3151 22.3883 0
ITEM: TIMESTEP
555
ITEM: NUMBER OF ATOMS
194
ITEM: BOX BOUNDS pp pp pp
0.0000000000000000e+00 3.0000000000000000e+01
0.0000000000000000e+00 3.0000000000000000e+01
-5.0000000000000000e-01 5.0000000000000000e-01
ITEM: ATOMS id type x y z
1 1 25.2774 10.5698 0
2 1 23.5315 19.3371 0
3 1 23.5117 25.6902 0
4 1 5.37451 20.8302 0
5 1 0.0115716 0.974582 0
6 1 15.0117 11.7359 0
7 1 5.01151 1.16167 0
8 1 23.4028 10.4653 0
9 1 12.52 22.7912 0
10 1 17.3053 1.91147 0
11 1 26.2344 9.60603 0
12 1 9.64755 0.711805 0
13 1 20.1567 4.35452 0
14 1 10.5474 5.34221 0
15 1 25.4632 11.6407 0
16 1 13.6737 9.42993 0
17 1 28.8647 4.74935 0
18 1 21.7631 1.15352 0
19 1 17.5536 24.116 0
20 1 5.28381 7.54396 0
21 1 13.7845 23.926 0
22 1 13.4617 12.3877 0
23 1 0.205132 12.9098 0
24 1 28.099 5.43753 0
25 1 25.6517 8.10796 0
26 1 4.8902 24.8838 0
27 1 28.3615 9.70553 0
28 1 19.6999 5.40368 0
29 1 25.4791 3.49266 0
30 1 21.2434 26.6139 0
31 1 8.27747 21.7744 0
32 1 20.2056 22.5912 0
33 1 13.5532 16.1968 0
34 1 0.906496 25.2067 0
35 1 12.249 6.43807 0
36 1 29.9981 18.7676 0
37 1 26.5069 15.0893 0
38 1 14.9566 16.3461 0
39 1 27.8577 28.8899 0
40 1 12.9384 0.290683 0
41 1 28.1148 27.4954 0
42 1 29.4811 8.72558 0
43 1 8.98056 21.0287 0
44 1 18.336 29.4503 0
45 1 26.7771 2.72144 0
46 1 3.4258 1.75064 0
47 1 12.5173 18.3858 0
48 1 14.0359 28.3957 0
49 1 28.2794 3.43386 0
50 1 1.34834 20.9407 0
51 1 22.656 18.3071 0
52 1 16.4358 18.4061 0
53 1 20.8502 19.2718 0
54 1 18.6143 21.5847 0
55 1 24.0418 15.4027 0
56 1 8.32921 1.5996 0
57 1 12.031 24.1553 0
58 1 6.26104 4.89046 0
59 1 23.5174 13.8746 0
60 1 27.1364 28.1484 0
61 1 22.3398 13.3288 0
62 1 23.2392 6.0336 0
63 1 26.082 6.78028 0
64 1 17.2247 11.0934 0
65 1 25.625 23.6214 0
66 1 8.19022 9.93565 0
67 1 18.7839 17.5681 0
68 1 0.846755 18.2577 0
69 1 12.8139 5.03495 0
70 1 4.87097 15.8745 0
71 1 1.80263 3.27734 0
72 1 4.85033 28.2292 0
73 1 6.39256 25.5062 0
74 1 22.2237 16.154 0
75 1 4.00151 27.3761 0
76 1 19.0812 13.2742 0
77 1 8.69173 0.336025 0
78 1 7.20072 2.77221 0
79 1 10.8586 26.9068 0
80 1 9.82483 18.3492 0
81 1 16.2848 17.4592 0
82 1 16.3463 20.4405 0
83 1 6.58916 23.434 0
84 1 17.7555 12.1471 0
85 1 6.66225 29.8128 0
86 1 20.1642 18.2431 0
87 1 13.9896 22.0056 0
88 1 8.6413 25.2071 0
89 1 19.7708 23.8032 0
90 1 16.1398 4.33277 0
91 1 6.31347 26.7117 0
92 1 25.8574 17.4297 0
93 1 12.4016 8.77848 0
94 1 24.8209 1.48046 0
95 1 28.4551 19.8944 0
96 1 12.2408 25.5276 0
97 1 1.41601 28.8567 0
98 1 4.38361 0.554941 0
99 1 19.1538 29.6446 0
100 1 15.5529 14.9862 0
101 1 10.4117 19.7116 0
102 1 16.154 9.47986 0
103 1 21.859 7.46916 0
104 1 7.09678 21.4324 0
105 1 20.0372 19.871 0
106 1 0.620533 9.06099 0
107 1 18.4463 0.945968 0
108 1 10.5941 13.0161 0
109 1 14.326 18.5178 0
110 1 22.1462 10.3963 0
111 1 13.6032 1.34767 0
112 1 11.5468 1.11449 0
113 1 14.942 22.7799 0
114 1 9.41075 12.1201 0
115 1 25.5221 12.7104 0
116 1 5.69914 2.74613 0
117 1 27.6552 26.5155 0
118 1 12.2353 12.0713 0
119 1 24.3573 9.45911 0
120 1 16.1747 7.06614 0
121 1 29.5662 24.1662 0
122 1 8.84874 14.3056 0
123 1 14.5573 27.2869 0
124 1 12.6937 15.6859 0
125 1 27.03 12.1437 0
126 1 6.1944 12.2794 0
127 1 6.95155 10.1413 0
128 1 28.4453 13.1977 0
129 1 3.86398 12.9819 0
130 1 7.27424 13.8774 0
131 1 22.1666 24.7072 0
132 1 1.72665 24.2697 0
133 1 0.0732578 22.863 0
134 1 15.015 28.224 0
135 1 10.9846 29.4954 0
136 1 19.3444 20.5098 0
137 1 25.0552 15.9422 0
138 1 27.9478 15.8555 0
139 1 13.3566 14.1687 0
140 1 2.55861 0.844197 0
141 1 1.37035 16.258 0
142 1 7.67402 4.66454 0
143 1 26.5738 0.125517 0
144 1 30.0056 25.1829 0
145 1 11.5246 17.8583 0
146 1 1.68252 13.9339 0
147 1 3.71377 5.61551 0
148 1 12.2814 27.4113 0
149 1 1.17165 0.772422 0
150 1 5.02154 10.6692 0
151 1 11.0258 28.5767 0
152 1 3.07592 12.4973 0
153 1 14.6 1.74548 0
154 1 14.8914 29.702 0
155 1 20.9607 4.09757 0
156 1 26.0441 5.41046 0
157 1 11.8261 14.3676 0
158 1 20.9237 6.99034 0
159 1 20.8115 9.82816 0
160 1 2.72203 6.95288 0
161 1 16.1982 10.4427 0
162 1 23.4478 22.4884 0
163 1 6.08132 19.2236 0
164 1 24.8693 26.4514 0
165 1 12.9174 24.3663 0
166 1 10.9576 10.6972 0
167 1 25.4581 20.3197 0
168 1 20.1575 27.3411 0
169 1 1.92447 9.55264 0
170 1 27.1915 25.065 0
171 1 10.2357 16.3371 0
172 1 23.6788 24.6022 0
173 1 20.0288 13.3571 0
174 1 16.6174 28.9128 0
175 1 19.4553 14.2383 0
176 1 28.6278 6.854 0
177 1 27.5761 10.3738 0
178 1 14.6016 14.3993 0
179 1 24.2435 11.1103 0
180 1 4.39324 14.6714 0
181 1 28.523 15.0514 0
182 1 2.99625 10.3271 0
183 1 24.3138 18.8206 0
184 1 24.4527 4.37583 0
185 1 21.1487 13.1267 0
186 1 20.3504 26.1194 0
187 1 29.1608 29.0468 0
188 1 21.2726 20.8992 0
189 1 3.09875 23.9031 0
190 1 29.6209 21.1012 0
191 1 18.3583 13.616 0
192 1 12.0626 3.83615 0
193 1 12.976 11.6584 0
194 1 21.3142 22.9655 0
ITEM: TIMESTEP
570
ITEM: NUMBER OF ATOMS
194
ITEM: BOX BOUNDS pp pp pp
0.0000000000000000e+00 3.0000000000000000e+01
0.0000000000000000e+00 3.0000000000000000e+01
-5.0000000000000000e-01 5.0000000000000000e-01
ITEM: ATOMS id type x y z
1 1 25.2501 10.9122 0
2 1 23.8632 19.3905 0
3 1 23.399 25.9682 0
4 1 5.49114 20.9425 0
5 1 29.6783 0.759672 0
6 1 15.0718 11.4988 0
7 1 5.26313 0.827912 0
8 1 23.5739 10.504 0
9 1 13.0419 22.6608 0
10 1 17.2892 1.72706 0
11 1 26.378 9.75461 0
12 1 9.65547 0.792933 0
13 1 20.0813 4.26263 0
14 1 10.4574 5.24608 0
15 1 25.2582 11.8168 0
16 1 13.5371 9.3558 0
17 1 28.8507 4.55334 0
18 1 21.9493 0.681627 0
19 1 17.2023 24.0626 0
20 1 5.23926 7.49782 0
21 1 14.0038 23.9447 0
22 1 13.8102 12.8321 0
23 1 0.0346885 12.9552 0
24 1 28.0495 5.65418 0
25 1 25.8731 7.8577 0
26 1 5.42579 24.9189 0
27 1 28.0692 9.53717 0
28 1 19.7481 5.12237 0
29 1 25.144 3.08516 0
30 1 21.2145 26.8971 0
31 1 7.88271 21.8593 0
32 1 20.5163 22.6457 0
33 1 13.7785 16.4227 0
34 1 0.977968 25.1986 0
35 1 12.2806 6.34243 0
36 1 0.0068287 18.7018 0
37 1 26.4856 14.6875 0
38 1 14.6864 16.1308 0
39 1 28.3951 28.5103 0
40 1 12.755 0.388879 0
41 1 28.1949 27.7369 0
42 1 29.5341 8.45359 0
43 1 8.56057 21.2092 0
44 1 18.17 29.4704 0
45 1 26.5087 2.60417 0
46 1 3.0793 2.02753 0
47 1 12.4817 18.246 0
48 1 14.1692 28.721 0
49 1 28.0075 3.36718 0
50 1 1.86869 21.456 0
51 1 22.6887 18.4813 0
52 1 16.384 18.7018 0
53 1 21.1765 19.4797 0
54 1 18.7228 21.5906 0
55 1 24.445 14.9902 0
56 1 7.99989 2.17928 0
57 1 11.5456 23.9712 0
58 1 6.36221 4.96526 0
59 1 23.3429 13.957 0
60 1 27.3492 28.4557 0
61 1 21.905 13.3309 0
62 1 23.3409 5.98365 0
63 1 26.0046 6.69848 0
64 1 16.8218 11.5847 0
65 1 25.6445 23.3812 0
66 1 7.75219 10.0816 0
67 1 18.9476 17.539 0
68 1 0.900322 18.32 0
69 1 12.7295 4.99115 0
70 1 4.67855 15.6596 0
71 1 2.01226 2.8943 0
72 1 5.12664 28.0103 0
73 1 6.59416 25.3855 0
74 1 21.8777 16.2638 0
75 1 4.35328 27.3136 0
76 1 19.2796 12.8828 0
77 1 8.66888 0.366247 0
78 1 6.82402 2.96296 0
79 1 11.2118 26.3213 0
80 1 9.89923 18.2787 0
81 1 16.3416 17.6209 0
82 1 16.6057 20.3667 0
83 1 6.57227 23.2317 0
84 1 17.8387 12.1922 0
85 1 6.86629 29.8175 0
86 1 20.3344 18.3185 0
87 1 14.0215 22.0732 0
88 1 8.60015 24.8178 0
89 1 19.6079 23.7153 0
90 1 15.8698 4.30568 0
91 1 6.24377 26.3094 0
92 1 25.8418 17.4882 0
93 1 12.2745 8.62695 0
94 1 24.6545 1.41959 0
95 1 28.2066 19.844 0
96 1 12.5897 25.7425 0
97 1 1.40113 28.9427 0
98 1 4.19747 0.208283 0
99 1 19.1903 0.265098 0
100 1 15.1491 15.0395 0
101 1 10.6363 19.445 0
102 1 16.2283 9.20117 0
103 1 21.9569 7.88354 0
104 1 7.0758 21.6797 0
105 1 20.2873 19.6181 0
106 1 0.687205 8.93761 0
107 1 18.4643 0.636063 0
108 1 10.5091 12.8197 0
109 1 14.4868 18.5581 0
110 1 22.7337 10.0292 0
111 1 13.6351 1.4389 0
112 1 11.2724 1.18102 0
113 1 15.3292 23.1038 0
114 1 8.98791 12.1726 0
115 1 25.3541 12.7777 0
116 1 5.81993 2.54973 0
117 1 27.5684 26.8273 0
118 1 12.281 12.0222 0
119 1 24.4068 9.1035 0
120 1 15.9353 7.12906 0
121 1 29.2462 23.7938 0
122 1 8.91443 14.71 0
123 1 14.6235 26.937 0
124 1 12.4662 15.6597 0
125 1 27.0697 11.8258 0
126 1 6.27845 11.9961 0
127 1 6.97366 9.66464 0
128 1 28.6727 13.4369 0
129 1 4.2082 13.7813 0
130 1 7.35647 13.6751 0
131 1 22.1384 24.988 0
132 1 1.52377 24.4007 0
133 1 -0.00552328 22.7225 0
134 1 15.3031 28.4679 0
135 1 11.0187 29.5748 0
136 1 19.7057 20.3492 0
137 1 25.3299 15.8285 0
138 1 27.6035 15.4868 0
139 1 13.5721 14.3992 0
140 1 2.42389 1.11186 0
141 1 1.49643 16.1188 0
142 1 7.33301 4.70705 0
143 1 27.0369 0.292726 0
144 1 29.9459 25.4926 0
145 1 11.5709 17.85 0
146 1 1.66556 14.41 0
147 1 4.02435 5.65249 0
148 1 12.3856 27.0198 0
149 1 1.10566 0.751954 0
150 1 5.18513 10.9636 0
151 1 10.8128 28.3459 0
152 1 3.17025 12.7193 0
153 1 14.4869 1.79582 0
154 1 14.5297 29.5994 0
155 1 21.287 4.26667 0
156 1 25.9193 5.85979 0
157 1 11.9491 13.8713 0
158 1 20.9711 7.32129 0
159 1 21.1285 9.60497 0
160 1 2.6953 6.68285 0
161 1 16.401 10.626 0
162 1 23.2818 22.3629 0
163 1 5.73942 19.5698 0
164 1 25.1768 26.3315 0
165 1 12.8519 24.0683 0
166 1 11.0161 10.7992 0
167 1 25.2381 20.2575 0
168 1 19.9688 27.1105 0
169 1 1.75913 9.90553 0
170 1 27.0834 25.165 0
171 1 10.1962 16.1448 0
172 1 23.8936 24.6873 0
173 1 20.1027 13.6047 0
174 1 16.6132 29.3663 0
175 1 18.8973 14.2926 0
176 1 28.8033 7.21571 0
177 1 27.1795 10.7248 0
178 1 14.4771 14.4092 0
179 1 24.0293 11.3859 0
180 1 4.15819 14.5234 0
181 1 28.6561 15.2716 0
182 1 2.71205 10.259 0
183 1 24.5249 18.4122 0
184 1 24.3026 4.21841 0
185 1 20.7202 12.9985 0
186 1 20.4016 26.3419 0
187 1 29.0339 28.9825 0
188 1 21.1879 21.1096 0
189 1 3.33436 23.5 0
190 1 29.4504 20.6298 0
191 1 18.2233 13.7791 0
192 1 12.0461 3.90265 0
193 1 13.4408 11.7767 0
194 1 21.3092 23.5421 0
ITEM: TIMESTEP
585
ITEM: NUMBER OF ATOMS
194
ITEM: BOX BOUNDS pp pp pp
0.0000000000000000e+00 3.0000000000000000e+01
0.0000000000000000e+00 3.0000000000000000e+01
-5.0000000000000000e-01 5.0000000000000000e-01
ITEM: ATOMS id type x y z
1 1 25.2372 10.9104 0
2 1 24.1877 19.4483 0
3 1 23.2869 26.2418 0
4 1 5.60955 21.0518 0
5 1 29.3483 0.543587 0
6 1 15.1323 11.2618 0
7 1 5.52573 0.503785 0
8 1 23.7162 10.4355 0
9 1 13.4608 22.6071 0
10 1 17.2748 1.54088 0
11 1 26.5236 9.90632 0
12 1 9.6751 0.878305 0
13 1 20.0023 4.01958 0
14 1 10.3679 5.14987 0
15 1 25.0052 11.9968 0
16 1 13.3979 9.28024 0
17 1 28.833 4.35755 0
18 1 22.1356 0.209732 0
19 1 16.8505 24.0089 0
20 1 5.1946 7.45151 0
21 1 14.2277 23.9582 0
22 1 14.18 13.3179 0
23 1 29.8614 13.0021 0
24 1 28.002 5.86911 0
25 1 26.1034 7.76425 0
26 1 5.95846 24.9543 0
27 1 27.7746 9.37058 0
28 1 19.7375 5.00481 0
29 1 24.8094 2.67829 0
30 1 21.4103 27.3041 0
31 1 7.84036 22.1868 0
32 1 20.8275 22.7045 0
33 1 13.8871 16.7078 0
34 1 1.05605 25.3151 0
35 1 12.3131 6.24344 0
36 1 29.8274 18.7286 0
37 1 26.4659 14.2891 0
38 1 14.5093 15.8977 0
39 1 28.5607 28.4026 0
40 1 12.5735 0.490527 0
41 1 28.2436 27.3835 0
42 1 29.5939 8.1864 0
43 1 8.25671 21.2557 0
44 1 17.9285 29.4636 0
45 1 26.2385 2.48828 0
46 1 2.86591 2.23002 0
47 1 12.8173 18.2813 0
48 1 14.2111 28.7163 0
49 1 27.7362 3.30256 0
50 1 2.38889 21.9715 0
51 1 22.7232 18.6579 0
52 1 16.3335 19.0158 0
53 1 21.7813 19.6023 0
54 1 18.8329 21.5951 0
55 1 24.8505 14.5792 0
56 1 7.66781 2.75995 0
57 1 11.0597 23.7866 0
58 1 6.29272 5.09956 0
59 1 23.1681 14.04 0
60 1 27.5107 28.746 0
61 1 21.4664 13.3326 0
62 1 23.4427 5.93346 0
63 1 25.9696 6.89795 0
64 1 16.4262 12.1041 0
65 1 25.6638 23.1413 0
66 1 7.49103 10.3083 0
67 1 19.1129 17.5109 0
68 1 1.14176 18.2901 0
69 1 12.6412 4.94649 0
70 1 4.6285 15.5705 0
71 1 2.08989 2.58555 0
72 1 5.42973 27.814 0
73 1 6.82711 25.2095 0
74 1 21.5317 16.3739 0
75 1 4.67866 27.2283 0
76 1 19.3361 12.4259 0
77 1 8.63533 0.392826 0
78 1 6.46917 3.16825 0
79 1 11.571 25.7374 0
80 1 9.97708 18.2109 0
81 1 16.3963 17.7655 0
82 1 16.8649 20.2914 0
83 1 6.5561 23.0276 0
84 1 17.9204 12.2378 0
85 1 7.0704 29.8226 0
86 1 20.5055 18.3923 0
87 1 14.1579 22.0709 0
88 1 8.55868 24.4287 0
89 1 19.4482 23.6244 0
90 1 15.5998 4.27859 0
91 1 6.14564 25.962 0
92 1 25.8241 17.5469 0
93 1 12.1499 8.47681 0
94 1 24.4887 1.36002 0
95 1 27.9608 19.7949 0
96 1 12.9464 25.9373 0
97 1 1.38602 29.0296 0
98 1 4.00047 -0.147134 0
99 1 19.6686 0.707273 0
100 1 14.8867 15.1774 0
101 1 10.8593 19.1743 0
102 1 16.2801 8.62615 0
103 1 22.0546 8.2987 0
104 1 6.58406 21.8198 0
105 1 20.4176 19.2771 0
106 1 0.751407 8.81424 0
107 1 18.112 0.532821 0
108 1 10.4239 12.6226 0
109 1 14.6481 18.598 0
110 1 23.1846 9.54862 0
111 1 13.5334 1.4715 0
112 1 10.9974 1.24501 0
113 1 15.7137 23.4279 0
114 1 8.56621 12.2258 0
115 1 25.2142 13.1832 0
116 1 5.92206 2.33729 0
117 1 27.3663 27.0518 0
118 1 12.2749 11.9949 0
119 1 24.4558 8.75015 0
120 1 15.6959 7.19238 0
121 1 28.9297 23.4187 0
122 1 8.98007 15.1145 0
123 1 14.6898 26.5898 0
124 1 12.2414 15.6331 0
125 1 27.1449 11.7528 0
126 1 6.36074 11.7111 0
127 1 6.81866 9.10771 0
128 1 28.9029 13.6755 0
129 1 4.59464 13.6308 0
130 1 7.43924 13.4727 0
131 1 22.1116 25.2688 0
132 1 1.39709 24.3969 0
133 1 29.9131 22.5857 0
134 1 15.5905 28.7143 0
135 1 11.0524 29.6598 0
136 1 19.9077 20.3667 0
137 1 25.6028 15.7112 0
138 1 27.1627 15.1734 0
139 1 13.5108 14.649 0
140 1 2.28455 1.37769 0
141 1 1.6226 15.9781 0
142 1 7.1624 4.68888 0
143 1 27.5004 0.459158 0
144 1 29.8029 25.8109 0
145 1 11.2445 17.6674 0
146 1 1.64848 14.8875 0
147 1 4.33415 5.6904 0
148 1 12.4765 26.6453 0
149 1 1.04047 0.732121 0
150 1 5.35097 11.2596 0
151 1 10.6005 28.1112 0
152 1 3.26559 12.9428 0
153 1 14.5046 1.90077 0
154 1 14.2605 29.8236 0
155 1 21.6755 4.42325 0
156 1 25.7432 5.87169 0
157 1 12.0732 13.3746 0
158 1 21.0186 7.65249 0
159 1 21.4474 9.38118 0
160 1 2.66954 6.41205 0
161 1 16.62 11.0798 0
162 1 23.1156 22.2375 0
163 1 5.39708 19.9197 0
164 1 25.4835 26.211 0
165 1 12.7836 23.7712 0
166 1 11.0752 10.9022 0
167 1 25.0162 20.1937 0
168 1 19.5852 27.2732 0
169 1 1.52787 10.2433 0
170 1 26.9752 25.2661 0
171 1 10.1565 15.9524 0
172 1 24.1066 24.7761 0
173 1 20.1322 14.0796 0
174 1 16.6097 29.8191 0
175 1 18.6223 14.5624 0
176 1 28.9758 7.57425 0
177 1 26.7444 10.8266 0
178 1 14.5072 14.2706 0
179 1 23.9896 11.8797 0
180 1 3.73732 15.1982 0
181 1 28.8823 15.4332 0
182 1 2.49138 10.2041 0
183 1 24.7439 17.9982 0
184 1 24.1545 4.05864 0
185 1 20.4888 12.7065 0
186 1 20.4236 26.047 0
187 1 29.4764 29.3465 0
188 1 21.1008 21.3185 0
189 1 3.56943 23.0971 0
190 1 29.2777 20.1568 0
191 1 17.7978 13.7272 0
192 1 12.032 3.97362 0
193 1 13.937 11.8346 0
194 1 21.3014 24.1168 0
ITEM: TIMESTEP
600
ITEM: NUMBER OF ATOMS
194
ITEM: BOX BOUNDS pp pp pp
0.0000000000000000e+00 3.0000000000000000e+01
0.0000000000000000e+00 3.0000000000000000e+01
-5.0000000000000000e-01 5.0000000000000000e-01
ITEM: ATOMS id type x y z
1 1 25.2376 10.7621 0
2 1 24.4493 19.4183 0
3 1 23.1736 26.5126 0
4 1 5.72174 21.148 0
5 1 29.0152 0.329794 0
6 1 15.1928 11.0277 0
7 1 5.78809 0.179055 0
8 1 23.9512 10.4619 0
9 1 13.5709 22.7825 0
10 1 17.2623 1.35088 0
11 1 26.6626 9.81709 0
12 1 9.69728 0.963455 0
13 1 19.9513 3.69402 0
14 1 10.2792 5.05353 0
15 1 24.8098 12.3298 0
16 1 13.2564 9.20319 0
17 1 28.8129 4.1612 0
18 1 22.3218 29.7378 0
19 1 16.715 24.0652 0
20 1 5.14986 7.40483 0
21 1 14.4491 23.9686 0
22 1 14.3961 13.3489 0
23 1 29.6874 13.0484 0
24 1 27.9551 6.08344 0
25 1 26.3791 8.186 0
26 1 6.27514 24.8294 0
27 1 27.4764 9.20566 0
28 1 19.7009 4.96989 0
29 1 24.4763 2.2707 0
30 1 21.6042 27.7094 0
31 1 7.75568 22.5995 0
32 1 21.1392 22.7632 0
33 1 13.926 17.0538 0
34 1 1.0683 25.5627 0
35 1 12.3465 6.13994 0
36 1 29.6488 18.7572 0
37 1 26.4411 13.887 0
38 1 14.1723 16.04 0
39 1 28.6824 28.2885 0
40 1 12.3939 0.594754 0
41 1 28.5163 27.1371 0
42 1 29.9472 8.16624 0
43 1 8.00621 21.2217 0
44 1 17.6822 29.4482 0
45 1 25.9659 2.37313 0
46 1 3.23591 2.13951 0
47 1 13.1524 18.3156 0
48 1 14.2129 28.5186 0
49 1 27.4656 3.23907 0
50 1 2.90873 22.4876 0
51 1 22.7578 18.8353 0
52 1 16.2838 19.3286 0
53 1 22.3878 19.7238 0
54 1 18.9444 21.5988 0
55 1 25.2684 14.2801 0
56 1 7.33011 3.34266 0
57 1 10.5752 23.6024 0
58 1 6.01674 5.31475 0
59 1 22.9938 14.1228 0
60 1 27.6715 29.0344 0
61 1 21.0233 13.3336 0
62 1 23.5446 5.8828 0
63 1 25.9075 6.69603 0
64 1 16.0326 12.6513 0
65 1 25.6831 22.9016 0
66 1 7.23615 10.5406 0
67 1 19.2797 17.4837 0
68 1 1.38106 18.2607 0
69 1 12.5519 4.90662 0
70 1 4.89136 15.7233 0
71 1 1.59454 2.57993 0
72 1 5.80895 27.6769 0
73 1 7.30806 25.0509 0
74 1 21.1857 16.4841 0
75 1 4.92843 27.0831 0
76 1 19.3893 11.9698 0
77 1 8.60204 0.419753 0
78 1 6.15166 3.40968 0
79 1 11.9368 25.1569 0
80 1 10.0616 18.1451 0
81 1 16.4502 17.9148 0
82 1 17.1226 20.2128 0
83 1 6.5439 22.8248 0
84 1 18.0016 12.285 0
85 1 7.27467 29.8288 0
86 1 20.712 18.1641 0
87 1 14.6024 21.846 0
88 1 8.5165 24.0395 0
89 1 19.2902 23.5323 0
90 1 15.3297 4.25148 0
91 1 6.01566 25.7571 0
92 1 25.8303 17.602 0
93 1 12.0277 8.32798 0
94 1 24.3238 1.30303 0
95 1 27.7191 19.7467 0
96 1 13.4733 25.8811 0
97 1 1.37011 29.1177 0
98 1 3.80493 29.4983 0
99 1 20.1609 1.14383 0
100 1 14.963 15.1375 0
101 1 11.0796 18.8978 0
102 1 16.3308 8.04915 0
103 1 22.2302 8.59778 0
104 1 6.08362 21.9659 0
105 1 20.5126 19.2367 0
106 1 0.812469 8.69017 0
107 1 17.7426 0.447152 0
108 1 10.3396 12.4249 0
109 1 14.81 18.6374 0
110 1 23.5461 8.97353 0
111 1 13.3963 1.48612 0
112 1 10.7198 1.3057 0
113 1 15.8798 23.6424 0
114 1 8.14373 12.2802 0
115 1 25.0652 13.4761 0
116 1 5.99278 2.0884 0
117 1 26.9244 27.1269 0
118 1 12.2687 11.9667 0
119 1 24.5028 8.39885 0
120 1 15.4578 7.25787 0
121 1 28.6172 23.0405 0
122 1 9.0482 15.5205 0
123 1 14.755 26.2427 0
124 1 12.0183 15.6057 0
125 1 27.2849 12.0001 0
126 1 6.46398 11.4278 0
127 1 6.65641 8.54629 0
128 1 29.1337 13.9157 0
129 1 4.98156 13.4598 0
130 1 7.52308 13.2688 0
131 1 22.084 25.5487 0
132 1 1.33205 24.2636 0
133 1 29.8279 22.4522 0
134 1 15.8749 28.9635 0
135 1 11.086 29.7457 0
136 1 20.1085 20.3888 0
137 1 25.8757 15.5893 0
138 1 26.7231 14.8651 0
139 1 13.3276 14.9189 0
140 1 2.13143 1.63125 0
141 1 1.76512 16.0851 0
142 1 7.19736 4.58755 0
143 1 27.9652 0.62425 0
144 1 29.6639 26.1276 0
145 1 10.9158 17.4884 0
146 1 1.61589 15.1174 0
147 1 4.64394 5.72895 0
148 1 12.3913 26.5179 0
149 1 0.977317 0.712783 0
150 1 5.49715 11.5533 0
151 1 10.3888 27.8782 0
152 1 3.36314 13.1677 0
153 1 14.5549 2.01946 0
154 1 14.0353 0.240988 0
155 1 22.0623 4.5798 0
156 1 25.5486 5.77042 0
157 1 12.1975 12.8779 0
158 1 21.0706 7.98737 0
159 1 21.6861 9.27082 0
160 1 2.6445 6.14091 0
161 1 16.8366 11.5064 0
162 1 22.949 22.1121 0
163 1 5.0547 20.2717 0
164 1 25.7912 26.0897 0
165 1 12.7193 23.471 0
166 1 11.1353 11.0071 0
167 1 24.8569 20.2146 0
168 1 19.2022 27.4369 0
169 1 1.19977 10.5741 0
170 1 26.8662 25.3686 0
171 1 10.1146 15.7588 0
172 1 24.3189 24.8665 0
173 1 20.1551 14.5595 0
174 1 16.6103 0.270473 0
175 1 18.3932 14.8682 0
176 1 28.8583 7.68783 0
177 1 26.25 10.8477 0
178 1 14.7001 14.3065 0
179 1 23.8818 12.367 0
180 1 2.99999 15.6501 0
181 1 29.1068 15.5937 0
182 1 2.36656 10.1547 0
183 1 24.9377 17.5896 0
184 1 24.0074 3.89723 0
185 1 20.2669 12.4109 0
186 1 20.4479 25.7517 0
187 1 29.983 29.7591 0
188 1 21.0115 21.5285 0
189 1 3.80475 22.6937 0
190 1 29.1021 19.6803 0
191 1 17.3291 13.635 0
192 1 12.0175 4.0446 0
193 1 14.4357 11.8937 0
194 1 21.2938 24.6921 0
ITEM: TIMESTEP
615
ITEM: NUMBER OF ATOMS
194
ITEM: BOX BOUNDS pp pp pp
0.0000000000000000e+00 3.0000000000000000e+01
0.0000000000000000e+00 3.0000000000000000e+01
-5.0000000000000000e-01 5.0000000000000000e-01
ITEM: ATOMS id type x y z
1 1 25.0668 10.5676 0
2 1 24.5567 19.1425 0
3 1 23.058 26.7814 0
4 1 5.7693 21.0776 0
5 1 28.8153 0.0199955 0
6 1 15.2527 10.797 0
7 1 6.05245 -0.145807 0
8 1 24.1864 10.4873 0
9 1 13.687 22.959 0
10 1 17.2391 1.25284 0
11 1 26.7068 9.69339 0
12 1 9.66884 1.0279 0
13 1 19.8997 3.37186 0
14 1 10.191 4.95705 0
15 1 24.7241 12.4537 0
16 1 13.1128 9.12468 0
17 1 28.7915 3.96426 0
18 1 22.5078 29.2655 0
19 1 17.0995 24.3856 0
20 1 5.1055 7.35739 0
21 1 14.6693 23.9764 0
22 1 14.5034 13.0449 0
23 1 29.5243 13.0762 0
24 1 27.9084 6.2982 0
25 1 26.6243 8.59013 0
26 1 6.52092 24.5466 0
27 1 27.31 8.96343 0
28 1 19.6651 4.93154 0
29 1 24.1639 2.04002 0
30 1 21.7984 28.1144 0
31 1 7.66701 23.0114 0
32 1 21.4505 22.8174 0
33 1 13.9569 17.4213 0
34 1 1.07853 25.8089 0
35 1 12.3805 6.03129 0
36 1 29.5443 18.6996 0
37 1 26.4018 13.4597 0
38 1 13.8268 16.1847 0
39 1 28.8007 28.1753 0
40 1 12.2165 0.700862 0
41 1 28.7863 26.8945 0
42 1 0.240656 8.11527 0
43 1 7.75451 21.191 0
44 1 17.4291 29.3836 0
45 1 25.6911 2.25815 0
46 1 3.60607 2.04893 0
47 1 13.4898 18.3478 0
48 1 14.2158 28.3227 0
49 1 27.1953 3.17595 0
50 1 3.22909 23.001 0
51 1 22.8185 18.9123 0
52 1 16.2367 19.641 0
53 1 22.9683 19.9458 0
54 1 19.0571 21.6018 0
55 1 25.6233 14.5624 0
56 1 6.96537 3.79006 0
57 1 10.0909 23.4185 0
58 1 5.74889 5.52638 0
59 1 22.8199 14.205 0
60 1 27.837 29.3218 0
61 1 20.576 13.3329 0
62 1 23.6468 5.83145 0
63 1 25.8638 6.54076 0
64 1 15.6396 13.1965 0
65 1 25.7023 22.662 0
66 1 7.11941 10.6208 0
67 1 19.4486 17.4573 0
68 1 1.61944 18.2314 0
69 1 12.4852 4.91017 0
70 1 5.15329 15.8758 0
71 1 1.09559 2.57757 0
72 1 6.20844 27.5539 0
73 1 7.88047 24.9121 0
74 1 20.8389 16.5956 0
75 1 5.15877 26.9223 0
76 1 19.3776 11.4781 0
77 1 8.57057 0.447679 0
78 1 5.83999 3.65084 0
79 1 12.3054 24.579 0
80 1 10.1305 18.1048 0
81 1 16.5029 18.0681 0
82 1 17.3768 20.1304 0
83 1 6.57661 22.6795 0
84 1 18.0816 12.3319 0
85 1 7.47956 29.8367 0
86 1 20.9327 17.8241 0
87 1 15.049 21.6201 0
88 1 8.47201 23.6501 0
89 1 19.1327 23.4398 0
90 1 15.0597 4.22425 0
91 1 5.86587 25.6899 0
92 1 26.0211 17.6588 0
93 1 11.9076 8.18041 0
94 1 24.1407 1.07076 0
95 1 27.4814 19.6983 0
96 1 14.007 25.7963 0
97 1 1.35176 29.2084 0
98 1 3.60965 29.1438 0
99 1 20.653 1.58042 0
100 1 15.243 15.6512 0
101 1 11.2955 18.6149 0
102 1 16.3794 7.46987 0
103 1 22.7073 8.49046 0
104 1 5.61041 22.2229 0
105 1 20.5913 19.3111 0
106 1 1.01857 8.66043 0
107 1 17.4352 0.332873 0
108 1 10.2568 12.2258 0
109 1 14.9725 18.6762 0
110 1 23.8466 8.43238 0
111 1 13.261 1.49701 0
112 1 10.4898 1.38231 0
113 1 15.5242 23.5926 0
114 1 7.74099 12.2735 0
115 1 24.8657 13.3695 0
116 1 6.06374 1.84131 0
117 1 26.4822 27.1996 0
118 1 12.2751 11.6174 0
119 1 24.6075 8.01499 0
120 1 15.2216 7.32565 0
121 1 28.3085 22.6603 0
122 1 9.10509 15.9273 0
123 1 14.8347 25.8978 0
124 1 11.7973 15.5774 0
125 1 27.4232 12.2458 0
126 1 6.48834 11.2948 0
127 1 6.49377 7.98498 0
128 1 29.3536 14.1758 0
129 1 5.36717 13.2881 0
130 1 7.58642 13.125 0
131 1 22.0605 25.8328 0
132 1 1.26662 24.1325 0
133 1 29.739 22.3207 0
134 1 16.1601 29.2151 0
135 1 11.1203 29.8346 0
136 1 20.3121 20.4094 0
137 1 26.1309 15.4946 0
138 1 26.466 14.5761 0
139 1 13.1486 15.1915 0
140 1 1.97937 1.87942 0
141 1 1.79055 16.6558 0
142 1 7.25147 4.62125 0
143 1 28.2934 0.887957 0
144 1 29.5288 26.4427 0
145 1 10.6073 17.2894 0
146 1 1.55532 14.9924 0
147 1 4.94721 5.77051 0
148 1 12.2824 26.4131 0
149 1 0.954657 0.737997 0
150 1 5.5847 11.85 0
151 1 10.1774 27.6456 0
152 1 3.46217 13.393 0
153 1 14.6012 2.13581 0
154 1 13.808 0.660091 0
155 1 22.4496 4.73649 0
156 1 25.3353 5.62183 0
157 1 12.3066 12.7001 0
158 1 21.1281 8.3273 0
159 1 21.6225 9.56279 0
160 1 2.61982 5.86969 0
161 1 17.0533 11.9375 0
162 1 22.7815 21.9868 0
163 1 4.71075 20.6219 0
164 1 26.0901 25.9773 0
165 1 12.6491 23.1746 0
166 1 11.197 11.1155 0
167 1 24.8507 20.4802 0
168 1 18.8197 27.6002 0
169 1 0.871149 10.9037 0
170 1 26.7671 25.4648 0
171 1 10.0848 15.5649 0
172 1 24.5313 24.9575 0
173 1 20.1786 15.0375 0
174 1 16.5642 0.705165 0
175 1 18.1636 15.1724 0
176 1 28.6553 7.73826 0
177 1 25.9198 11.0488 0
178 1 14.8085 14.0968 0
179 1 23.6282 12.8573 0
180 1 2.4086 15.9935 0
181 1 29.3313 15.7529 0
182 1 2.24191 10.1057 0
183 1 24.9467 17.1794 0
184 1 23.8604 3.73509 0
185 1 20.1094 12.1558 0
186 1 20.4569 25.4639 0
187 1 0.455795 30.1208 0
188 1 20.9211 21.7411 0
189 1 4.23982 22.2928 0
190 1 28.8495 19.2901 0
191 1 16.861 13.5408 0
192 1 11.9789 4.07766 0
193 1 14.9372 11.9545 0
194 1 21.2997 25.2577 0
ITEM: TIMESTEP
630
ITEM: NUMBER OF ATOMS
194
ITEM: BOX BOUNDS pp pp pp
0.0000000000000000e+00 3.0000000000000000e+01
0.0000000000000000e+00 3.0000000000000000e+01
-5.0000000000000000e-01 5.0000000000000000e-01
ITEM: ATOMS id type x y z
1 1 25.1563 10.3132 0
2 1 24.6614 18.8644 0
3 1 22.9388 27.0476 0
4 1 5.80807 20.975 0
5 1 28.8355 29.5796 0
6 1 15.3119 10.5707 0
7 1 6.32014 29.5296 0
8 1 23.9671 10.501 0
9 1 13.8176 23.1341 0
10 1 17.3642 1.4415 0
11 1 26.6123 9.72193 0
12 1 9.44628 1.00903 0
13 1 19.8482 3.0513 0
14 1 10.1035 4.86043 0
15 1 24.5671 12.1217 0
16 1 12.9673 9.04478 0
17 1 28.7692 3.76695 0
18 1 22.7304 28.8175 0
19 1 17.4831 24.7055 0
20 1 5.06341 7.3085 0
21 1 14.6336 24.1307 0
22 1 14.6077 12.7298 0
23 1 29.3634 13.0989 0
24 1 27.8622 6.51448 0
25 1 26.3135 8.68593 0
26 1 6.76974 24.2642 0
27 1 27.8369 8.87841 0
28 1 19.6296 4.8911 0
29 1 23.8671 1.99639 0
30 1 21.9567 28.4945 0
31 1 7.48731 23.3897 0
32 1 21.7613 22.866 0
33 1 14.0501 17.6369 0
34 1 1.08737 26.0542 0
35 1 12.414 5.92904 0
36 1 29.6152 18.4649 0
37 1 26.3588 13.0286 0
38 1 13.4831 16.3299 0
39 1 28.9171 28.0592 0
40 1 12.041 0.807791 0
41 1 28.6324 26.8791 0
42 1 0.338906 7.93476 0
43 1 7.50179 21.1617 0
44 1 17.2068 29.1867 0
45 1 25.4145 2.14317 0
46 1 3.97433 1.95803 0
47 1 13.7677 18.5301 0
48 1 14.2191 28.127 0
49 1 26.925 3.11273 0
50 1 3.482 23.5224 0
51 1 22.8856 18.9273 0
52 1 16.193 19.9526 0
53 1 23.5439 20.2301 0
54 1 19.1711 21.6048 0
55 1 25.1652 14.7495 0
56 1 6.50597 3.79384 0
57 1 9.60466 23.2349 0
58 1 5.96079 5.59075 0
59 1 22.6474 14.2851 0
60 1 27.9478 29.5952 0
61 1 20.1264 13.3283 0
62 1 23.7492 5.77852 0
63 1 25.8283 6.40281 0
64 1 15.5034 13.5207 0
65 1 25.7214 22.4222 0
66 1 7.31444 10.3616 0
67 1 19.6215 17.4306 0
68 1 1.8651 18.2179 0
69 1 12.4565 4.96912 0
70 1 5.41518 16.0283 0
71 1 0.59698 2.5749 0
72 1 6.60431 27.4283 0
73 1 8.45066 24.7687 0
74 1 20.4885 16.7067 0
75 1 5.39426 26.7605 0
76 1 19.3151 10.9491 0
77 1 8.5396 0.475786 0
78 1 5.52455 3.89265 0
79 1 12.6753 23.9986 0
80 1 10.1516 18.1492 0
81 1 16.5541 18.2239 0
82 1 17.6265 20.0459 0
83 1 6.63715 22.5575 0
84 1 18.1847 12.3823 0
85 1 7.68474 29.8468 0
86 1 21.1522 17.4864 0
87 1 15.4953 21.3951 0
88 1 8.5153 23.2968 0
89 1 18.9752 23.3466 0
90 1 14.7896 4.19677 0
91 1 5.71592 25.6251 0
92 1 26.2338 17.7189 0
93 1 11.7893 8.03407 0
94 1 23.9445 0.653115 0
95 1 27.2473 19.6487 0
96 1 14.1171 25.6683 0
97 1 1.33012 29.3036 0
98 1 3.41425 28.7893 0
99 1 21.1448 2.0175 0
100 1 15.5204 16.1668 0
101 1 11.5057 18.3275 0
102 1 16.4251 6.89056 0
103 1 23.1408 8.39452 0
104 1 5.21976 22.5467 0
105 1 20.6706 19.3831 0
106 1 1.41848 8.76051 0
107 1 17.2602 0.182429 0
108 1 10.1766 12.0243 0
109 1 15.1342 18.7138 0
110 1 23.9315 8.02198 0
111 1 13.0218 1.63977 0
112 1 10.4512 1.53811 0
113 1 15.4219 23.3947 0
114 1 7.40469 11.9743 0
115 1 24.7466 13.7149 0
116 1 6.13474 1.59501 0
117 1 26.0389 27.2669 0
118 1 12.2862 11.1128 0
119 1 24.9714 7.48713 0
120 1 14.9884 7.39346 0
121 1 28.0027 22.2794 0
122 1 9.14415 16.338 0
123 1 15.3368 25.5952 0
124 1 11.5787 15.5485 0
125 1 27.5596 12.4926 0
126 1 6.24059 11.4743 0
127 1 6.32873 7.42269 0
128 1 29.5711 14.443 0
129 1 5.75296 13.1146 0
130 1 7.58055 13.2714 0
131 1 22.1766 26.2208 0
132 1 1.20106 24.0027 0
133 1 29.6473 22.1901 0
134 1 16.4122 29.4767 0
135 1 11.1565 29.9273 0
136 1 20.5164 20.4331 0
137 1 26.3564 15.4725 0
138 1 27.053 14.3129 0
139 1 12.9681 15.4665 0
140 1 1.82704 2.12516 0
141 1 1.39654 17.5399 0
142 1 7.40258 5.09835 0
143 1 28.4603 1.29314 0
144 1 29.8189 26.5356 0
145 1 10.3519 17.0086 0
146 1 1.49798 14.8723 0
147 1 4.77205 5.96009 0
148 1 12.1744 26.307 0
149 1 1.32311 1.23662 0
150 1 5.6346 12.1776 0
151 1 9.96613 27.4131 0
152 1 3.56177 13.6183 0
153 1 14.6445 2.25001 0
154 1 13.6823 0.946566 0
155 1 22.8391 4.89379 0
156 1 25.1122 5.45688 0
157 1 12.411 12.6763 0
158 1 21.1892 8.67191 0
159 1 21.5562 9.85192 0
160 1 2.59532 5.59845 0
161 1 17.2469 12.3671 0
162 1 22.6117 21.8622 0
163 1 4.36859 20.9732 0
164 1 26.0897 26.1009 0
165 1 12.5674 22.8853 0
166 1 11.2563 11.2278 0
167 1 24.8454 20.7477 0
168 1 18.437 27.7637 0
169 1 0.544385 11.232 0
170 1 26.968 25.33 0
171 1 10.0748 15.3685 0
172 1 24.7444 25.0491 0
173 1 20.2027 15.516 0
174 1 16.2394 1.01132 0
175 1 17.9343 15.4762 0
176 1 28.4523 7.78863 0
177 1 25.7854 11.3206 0
178 1 14.6643 14.1146 0
179 1 23.3679 13.3511 0
180 1 2.22565 16.0028 0
181 1 29.556 15.91 0
182 1 2.11493 10.0572 0
183 1 24.9337 16.7661 0
184 1 23.7129 3.57277 0
185 1 20.0025 11.944 0
186 1 20.2499 25.2279 0
187 1 0.540474 0.00782804 0
188 1 20.8315 21.9555 0
189 1 4.64292 21.8262 0
190 1 28.4182 19.078 0
191 1 16.3917 13.443 0
192 1 11.9023 4.04928 0
193 1 15.441 12.0163 0
194 1 21.3848 25.6706 0
ITEM: TIMESTEP
645
ITEM: NUMBER OF ATOMS
194
ITEM: BOX BOUNDS pp pp pp
0.0000000000000000e+00 3.0000000000000000e+01
0.0000000000000000e+00 3.0000000000000000e+01
-5.0000000000000000e-01 5.0000000000000000e-01
ITEM: ATOMS id type x y z
1 1 25.3994 10.0588 0
2 1 24.7651 18.5873 0
3 1 22.8597 27.3695 0
4 1 5.84228 20.8766 0
5 1 29.0864 29.1609 0
6 1 15.3711 10.3478 0
7 1 6.5915 29.2059 0
8 1 23.5975 10.517 0
9 1 13.9516 23.3127 0
10 1 17.5085 1.64333 0
11 1 26.5181 9.75873 0
12 1 9.24275 1.00494 0
13 1 19.7975 2.73076 0
14 1 10.0165 4.76363 0
15 1 24.4117 11.7888 0
16 1 12.8202 8.96374 0
17 1 28.7467 3.56921 0
18 1 23.263 28.5199 0
19 1 17.8668 25.0252 0
20 1 5.02541 7.25564 0
21 1 14.455 24.3762 0
22 1 14.7117 12.42 0
23 1 29.2025 13.125 0
24 1 27.8171 6.73425 0
25 1 25.9731 8.7627 0
26 1 6.77381 24.2798 0
27 1 28.3906 8.8089 0
28 1 19.5941 4.84991 0
29 1 23.5723 1.95271 0
30 1 21.8057 28.7221 0
31 1 7.46069 23.4471 0
32 1 22.0715 22.9077 0
33 1 14.2344 17.6087 0
34 1 1.09697 26.2991 0
35 1 12.4439 5.92767 0
36 1 29.6876 18.2288 0
37 1 26.3191 12.5981 0
38 1 13.173 16.5355 0
39 1 29.0321 27.9406 0
40 1 11.8666 0.915238 0
41 1 28.3564 26.9272 0
42 1 0.437712 7.75518 0
43 1 7.247 21.134 0
44 1 17.2759 28.8185 0
45 1 25.1361 2.02836 0
46 1 4.34254 1.86715 0
47 1 13.9586 18.9546 0
48 1 14.2224 27.9312 0
49 1 26.6546 3.04913 0
50 1 3.73565 24.0431 0
51 1 22.9546 18.9447 0
52 1 16.1512 20.2633 0
53 1 24.1169 20.51 0
54 1 19.2867 21.6082 0
55 1 24.7128 14.9578 0
56 1 6.10493 3.78858 0
57 1 9.37175 23.057 0
58 1 6.27202 5.62469 0
59 1 22.4574 14.3818 0
60 1 27.8294 29.8461 0
61 1 19.6761 13.3199 0
62 1 23.8563 5.72605 0
63 1 25.7961 6.25461 0
64 1 15.2356 13.5717 0
65 1 25.7404 22.1818 0
66 1 7.50864 10.105 0
67 1 19.7314 17.4838 0
68 1 2.31264 18.4855 0
69 1 12.4397 4.94097 0
70 1 5.67707 16.1808 0
71 1 0.103034 2.56907 0
72 1 6.99648 27.3008 0
73 1 9.01968 24.6207 0
74 1 20.1929 16.7597 0
75 1 5.63422 26.5992 0
76 1 19.2524 10.4222 0
77 1 8.49378 0.500071 0
78 1 5.15086 4.14389 0
79 1 13.0471 23.4262 0
80 1 10.1726 18.2019 0
81 1 16.6025 18.3816 0
82 1 17.8728 19.961 0
83 1 6.69806 22.4375 0
84 1 18.3941 12.4348 0
85 1 7.86329 29.8361 0
86 1 21.3802 17.1631 0
87 1 15.942 21.1697 0
88 1 8.39334 22.9615 0
89 1 18.8178 23.2528 0
90 1 14.5193 4.16882 0
91 1 5.566 25.5609 0
92 1 26.4445 17.7782 0
93 1 11.6728 7.88889 0
94 1 23.7482 0.237627 0
95 1 27.0175 19.5967 0
96 1 14.1604 25.5343 0
97 1 1.33908 29.3751 0
98 1 3.21861 28.4349 0
99 1 21.6357 2.45531 0
100 1 15.7971 16.6825 0
101 1 11.7114 18.0387 0
102 1 16.4683 6.31187 0
103 1 23.3475 8.39636 0
104 1 5.10513 23.0625 0
105 1 20.7519 19.4401 0
106 1 1.81843 8.86235 0
107 1 17.1441 0.137796 0
108 1 10.1003 11.8203 0
109 1 15.2941 18.7496 0
110 1 24.2291 7.52138 0
111 1 12.6459 1.9394 0
112 1 10.4331 1.70138 0
113 1 15.4574 23.1042 0
114 1 7.06712 11.6629 0
115 1 24.621 14.0386 0
116 1 6.20565 1.34866 0
117 1 25.5958 27.3303 0
118 1 12.3122 10.6092 0
119 1 25.344 6.95976 0
120 1 14.7578 7.46064 0
121 1 27.6982 21.8984 0
122 1 9.18292 16.7474 0
123 1 15.9051 25.2952 0
124 1 11.3613 15.5195 0
125 1 27.6922 12.742 0
126 1 6.09169 11.5488 0
127 1 6.1586 6.8588 0
128 1 29.7885 14.7094 0
129 1 6.22187 13.1953 0
130 1 7.57204 13.4274 0
131 1 22.3813 26.647 0
132 1 1.13553 23.8731 0
133 1 29.5541 22.0597 0
134 1 16.315 29.8068 0
135 1 11.1955 30.0246 0
136 1 20.7187 20.4736 0
137 1 26.5802 15.4472 0
138 1 27.6388 14.048 0
139 1 12.7519 15.6842 0
140 1 1.73299 2.55318 0
141 1 0.799706 18.1424 0
142 1 7.55107 5.57709 0
143 1 28.6274 1.69627 0
144 1 0.231018 26.5708 0
145 1 10.1039 16.7183 0
146 1 1.4425 14.7559 0
147 1 4.50081 6.18321 0
148 1 12.0666 26.2008 0
149 1 1.64075 1.57129 0
150 1 5.50706 12.3563 0
151 1 9.75494 27.1805 0
152 1 3.66149 13.8435 0
153 1 14.6861 2.36267 0
154 1 13.69 1.07443 0
155 1 23.2289 5.0486 0
156 1 24.8873 5.29559 0
157 1 12.5149 12.6497 0
158 1 21.2525 9.0213 0
159 1 21.4887 10.136 0
160 1 2.57101 5.32726 0
161 1 17.3323 12.7967 0
162 1 22.4384 21.7407 0
163 1 3.78933 20.9078 0
164 1 26.0293 26.2747 0
165 1 12.4856 22.5892 0
166 1 11.2975 11.3441 0
167 1 24.8421 21.0167 0
168 1 18.0536 27.928 0
169 1 0.217948 11.5602 0
170 1 27.2279 25.1483 0
171 1 10.0653 15.1762 0
172 1 24.9586 25.1414 0
173 1 20.2265 15.9585 0
174 1 15.8947 1.30088 0
175 1 17.705 15.7801 0
176 1 28.2475 7.83224 0
177 1 25.6487 11.5923 0
178 1 14.1172 14.4695 0
179 1 23.1299 13.8282 0
180 1 2.04013 16.009 0
181 1 29.7809 16.0642 0
182 1 1.98624 10.0063 0
183 1 24.9228 16.3534 0
184 1 23.5648 3.41017 0
185 1 19.895 11.7348 0
186 1 20.0218 24.9934 0
187 1 0.581475 29.9032 0
188 1 20.7443 22.1709 0
189 1 5.01638 21.5823 0
190 1 27.9818 18.8691 0
191 1 16.4578 13.2706 0
192 1 11.8169 4.00745 0
193 1 15.9473 12.0777 0
194 1 21.3618 25.9904 0
ITEM: TIMESTEP
660
ITEM: NUMBER OF ATOMS
194
ITEM: BOX BOUNDS pp pp pp
0.0000000000000000e+00 3.0000000000000000e+01
0.0000000000000000e+00 3.0000000000000000e+01
-5.0000000000000000e-01 5.0000000000000000e-01
ITEM: ATOMS id type x y z
1 1 25.6017 9.8104 0
2 1 24.8687 18.3103 0
3 1 22.9294 27.9225 0
4 1 5.91443 20.7385 0
5 1 29.3431 28.7442 0
6 1 15.4305 10.126 0
7 1 6.86635 28.8836 0
8 1 23.2303 10.5345 0
9 1 14.2592 23.4956 0
10 1 17.6505 1.84222 0
11 1 26.4645 9.79072 0
12 1 9.21875 1.12098 0
13 1 19.7473 2.4103 0
14 1 9.93005 4.66666 0
15 1 24.2604 11.4533 0
16 1 12.6713 8.88266 0
17 1 28.7252 3.36944 0
18 1 23.8292 28.2443 0
19 1 18.2505 25.3445 0
20 1 4.99092 7.19743 0
21 1 14.2807 24.5852 0
22 1 14.8219 12.114 0
23 1 29.039 13.1521 0
24 1 27.7705 6.94975 0
25 1 25.6323 8.84054 0
26 1 6.4989 24.633 0
27 1 28.9477 8.77473 0
28 1 19.5588 4.80844 0
29 1 23.2792 1.91111 0
30 1 21.6441 28.945 0
31 1 7.53312 23.316 0
32 1 22.3812 22.9431 0
33 1 14.419 17.5807 0
34 1 1.39985 26.4595 0
35 1 12.4727 6.00576 0
36 1 29.6474 17.9473 0
37 1 26.308 12.1852 0
38 1 12.9142 16.8411 0
39 1 29.1442 27.8162 0
40 1 11.6964 1.03077 0
41 1 28.0839 26.9793 0
42 1 0.537033 7.5764 0
43 1 6.98745 21.1094 0
44 1 17.2016 28.6257 0
45 1 24.8559 1.91393 0
46 1 4.7113 1.77623 0
47 1 14.1538 19.3773 0
48 1 14.2256 27.7353 0
49 1 26.3839 2.98511 0
50 1 3.99054 24.5629 0
51 1 23.0243 18.9624 0
52 1 16.1477 20.185 0
53 1 24.4297 20.5758 0
54 1 19.4044 21.6129 0
55 1 24.2697 15.2956 0
56 1 5.74404 3.77244 0
57 1 9.49788 22.8943 0
58 1 6.59606 5.64229 0
59 1 22.0667 14.6405 0
60 1 27.7074 0.0970452 0
61 1 19.224 13.3084 0
62 1 24.0925 5.85346 0
63 1 25.9981 5.71556 0
64 1 14.7856 13.6455 0
65 1 25.7663 21.9457 0
66 1 7.70211 9.85022 0
67 1 19.58 17.9159 0
68 1 2.77756 18.7702 0
69 1 12.4241 4.83381 0
70 1 5.93897 16.3333 0
71 1 29.6094 2.56298 0
72 1 7.38634 27.1725 0
73 1 9.58817 24.4698 0
74 1 20.1373 17.032 0
75 1 5.87858 26.4572 0
76 1 19.1913 9.89821 0
77 1 8.4001 0.549545 0
78 1 4.73746 4.40747 0
79 1 13.2679 22.8825 0
80 1 10.1952 18.2507 0
81 1 16.6466 18.5406 0
82 1 18.1178 19.8762 0
83 1 6.76253 22.3189 0
84 1 18.6227 12.4861 0
85 1 7.91051 29.6807 0
86 1 21.6035 16.8393 0
87 1 16.3511 21.3319 0
88 1 8.08685 22.4598 0
89 1 18.6609 23.1583 0
90 1 14.249 4.14017 0
91 1 5.41462 25.4777 0
92 1 26.6554 17.8385 0
93 1 11.5577 7.7448 0
94 1 23.5516 29.8227 0
95 1 26.7915 19.5414 0
96 1 14.2003 25.432 0
97 1 1.46381 29.3651 0
98 1 3.0227 28.0806 0
99 1 22.1269 2.89328 0
100 1 16.0736 17.1995 0
101 1 11.915 17.7494 0
102 1 16.511 5.73341 0
103 1 23.5408 8.40594 0
104 1 4.9911 23.5768 0
105 1 20.834 19.4726 0
106 1 2.21854 8.96304 0
107 1 17.2283 0.185934 0
108 1 10.0287 11.6144 0
109 1 15.4531 18.784 0
110 1 24.5417 7.0108 0
111 1 12.2683 2.23411 0
112 1 10.413 1.86105 0
113 1 15.4891 22.8156 0
114 1 6.82719 11.352 0
115 1 24.4808 14.2301 0
116 1 6.2763 1.10217 0
117 1 25.1536 27.3912 0
118 1 12.3374 10.1065 0
119 1 25.4766 6.82079 0
120 1 14.5274 7.52765 0
121 1 27.3939 21.5173 0
122 1 9.09365 17.1755 0
123 1 16.4716 24.9944 0
124 1 11.1428 15.4907 0
125 1 27.8201 12.9852 0
126 1 5.87971 11.5759 0
127 1 5.97377 6.31159 0
128 1 30.0069 14.9787 0
129 1 6.74227 13.4121 0
130 1 7.57082 13.5838 0
131 1 22.4125 26.8245 0
132 1 1.06995 23.7436 0
133 1 29.4603 21.9294 0
134 1 16.0015 0.0549049 0
135 1 11.2322 0.11949 0
136 1 20.92 20.5402 0
137 1 26.8034 15.4212 0
138 1 28.2278 13.7896 0
139 1 12.4826 15.8031 0
140 1 1.6938 3.1944 0
141 1 0.297204 18.7731 0
142 1 7.69416 6.05607 0
143 1 28.7952 2.10048 0
144 1 0.348348 26.6912 0
145 1 9.98624 16.4092 0
146 1 1.38707 14.6432 0
147 1 4.23261 6.40935 0
148 1 11.959 26.0944 0
149 1 1.90079 1.69285 0
150 1 5.28677 12.4435 0
151 1 9.54376 26.9479 0
152 1 3.76122 14.0688 0
153 1 14.7278 2.47341 0
154 1 13.6966 1.20454 0
155 1 23.4745 5.0377 0
156 1 24.6824 5.12444 0
157 1 12.6184 12.6219 0
158 1 21.3161 9.37119 0
159 1 21.4209 10.4198 0
160 1 2.54696 5.05615 0
161 1 17.5575 13.1827 0
162 1 22.2627 21.6241 0
163 1 3.12905 20.7232 0
164 1 25.9678 26.448 0
165 1 12.3865 22.2636 0
166 1 11.3359 11.4612 0
167 1 25.092 21.4946 0
168 1 17.8285 27.9116 0
169 1 29.8912 11.8889 0
170 1 27.4864 24.9681 0
171 1 10.0597 14.9881 0
172 1 25.1745 25.2355 0
173 1 20.2764 15.804 0
174 1 15.5517 1.58923 0
175 1 17.4754 16.0841 0
176 1 28.0401 7.84486 0
177 1 25.4816 11.8451 0
178 1 13.5722 14.8225 0
179 1 23.0963 14.1441 0
180 1 1.85263 16.0118 0
181 1 30.0063 16.2142 0
182 1 1.8564 9.95591 0
183 1 24.9153 15.9427 0
184 1 23.4163 3.24567 0
185 1 19.7847 11.5252 0
186 1 19.7947 24.7595 0
187 1 0.505925 29.8798 0
188 1 20.6581 22.3856 0
189 1 5.43747 21.5011 0
190 1 27.5417 18.6622 0
191 1 16.5428 13.1144 0
192 1 11.7308 3.96534 0
193 1 16.4517 12.1432 0
194 1 21.3392 26.3104 0
ITEM: TIMESTEP
675
ITEM: NUMBER OF ATOMS
194
ITEM: BOX BOUNDS pp pp pp
0.0000000000000000e+00 3.0000000000000000e+01
0.0000000000000000e+00 3.0000000000000000e+01
-5.0000000000000000e-01 5.0000000000000000e-01
ITEM: ATOMS id type x y z
1 1 25.532 9.7182 0
2 1 24.9726 18.0335 0
3 1 22.93 28.4419 0
4 1 6.0819 20.43 0
5 1 29.6372 28.46 0
6 1 15.4899 9.90471 0
7 1 7.14524 28.5637 0
8 1 22.865 10.5542 0
9 1 14.6261 23.6641 0
10 1 17.792 2.03987 0
11 1 26.6919 9.80968 0
12 1 9.26387 1.28462 0
13 1 19.6971 2.0899 0
14 1 9.84416 4.5695 0
15 1 24.1114 11.1166 0
16 1 12.5243 8.78571 0
17 1 28.6952 3.18073 0
18 1 24.4156 28.0923 0
19 1 18.6349 25.6629 0
20 1 4.9626 7.13822 0
21 1 14.1312 24.4899 0
22 1 14.9344 11.8104 0
23 1 29.1064 12.9067 0
24 1 27.6829 7.01813 0
25 1 25.2817 8.77551 0
26 1 6.22159 24.9871 0
27 1 29.504 8.74111 0
28 1 19.5234 4.76687 0
29 1 22.987 1.87525 0
30 1 21.4842 29.1668 0
31 1 7.41703 23.3641 0
32 1 22.6898 22.9737 0
33 1 14.6047 17.5543 0
34 1 1.83845 26.5837 0
35 1 12.5012 6.08438 0
36 1 29.4802 17.596 0
37 1 26.4549 11.8476 0
38 1 12.7417 17.0999 0
39 1 29.2179 27.5567 0
40 1 11.5398 1.17952 0
41 1 27.8148 27.0339 0
42 1 0.636154 7.39806 0
43 1 6.74011 21.1012 0
44 1 16.8157 28.7908 0
45 1 24.574 1.80014 0
46 1 5.08127 1.68498 0
47 1 14.3524 19.7978 0
48 1 14.2289 27.5392 0
49 1 26.1128 2.92075 0
50 1 4.24957 25.081 0
51 1 23.0945 18.9802 0
52 1 16.1525 19.9201 0
53 1 24.6606 20.5652 0
54 1 19.5243 21.6195 0
55 1 23.7301 15.5835 0
56 1 5.38193 3.75773 0
57 1 9.62128 22.7328 0
58 1 7.00206 5.56837 0
59 1 21.6425 14.9225 0
60 1 27.5859 0.347848 0
61 1 18.819 13.4156 0
62 1 24.2375 5.98424 0
63 1 26.2398 5.10104 0
64 1 14.3354 13.7172 0
65 1 26.3004 22.0053 0
66 1 7.89502 9.59642 0
67 1 19.3907 18.4104 0
68 1 3.24233 19.0553 0
69 1 12.41 4.72721 0
70 1 6.20086 16.4858 0
71 1 29.5991 2.81318 0
72 1 7.77498 27.0444 0
73 1 10.1564 24.3168 0
74 1 20.1183 17.3016 0
75 1 6.12681 26.3237 0
76 1 19.131 9.37532 0
77 1 8.29325 0.628882 0
78 1 4.32534 4.67044 0
79 1 13.4458 22.3384 0
80 1 10.217 18.2969 0
81 1 16.6852 18.6994 0
82 1 18.3621 19.7914 0
83 1 6.83269 22.1986 0
84 1 18.8015 12.419 0
85 1 7.90109 29.447 0
86 1 21.8227 16.5147 0
87 1 16.7509 21.6781 0
88 1 7.96248 21.7754 0
89 1 18.5049 23.0633 0
90 1 13.9784 4.1107 0
91 1 5.26174 25.3822 0
92 1 26.7841 17.7831 0
93 1 11.4442 7.60166 0
94 1 23.3547 29.4056 0
95 1 26.5674 19.4827 0
96 1 14.21 25.6542 0
97 1 1.60981 29.3419 0
98 1 2.82633 27.7264 0
99 1 22.5454 3.33915 0
100 1 16.3501 17.7202 0
101 1 12.0364 17.5151 0
102 1 16.5537 5.15497 0
103 1 23.7353 8.41471 0
104 1 4.87564 24.0944 0
105 1 20.9155 19.4934 0
106 1 2.62113 9.05407 0
107 1 17.3212 0.236231 0
108 1 9.96186 11.4078 0
109 1 15.6135 18.8182 0
110 1 24.8155 6.67334 0
111 1 11.8887 2.52466 0
112 1 10.3926 2.01711 0
113 1 15.5183 22.528 0
114 1 6.6911 11.0279 0
115 1 24.3379 14.393 0
116 1 6.34626 0.855836 0
117 1 24.7687 27.3722 0
118 1 12.3584 9.61949 0
119 1 25.712 6.74545 0
120 1 14.297 7.59472 0
121 1 27.088 21.1367 0
122 1 8.97311 17.6151 0
123 1 17.0384 24.6936 0
124 1 10.9227 15.4634 0
125 1 27.87 13.0891 0
126 1 5.57559 11.6 0
127 1 5.70687 5.85989 0
128 1 0.228498 15.2516 0
129 1 6.83514 13.5352 0
130 1 7.9957 13.8319 0
131 1 22.4326 26.9892 0
132 1 1.00429 23.6139 0
133 1 29.3663 21.7991 0
134 1 15.6795 0.301021 0
135 1 11.2555 0.18735 0
136 1 21.1222 20.6201 0
137 1 27.0263 15.3951 0
138 1 28.6625 13.9436 0
139 1 12.2074 15.9111 0
140 1 1.6549 3.83406 0
141 1 -0.0780339 19.4725 0
142 1 7.83223 6.53362 0
143 1 28.4883 2.23716 0
144 1 0.328611 26.8493 0
145 1 9.90436 16.0856 0
146 1 1.32929 14.5347 0
147 1 3.96285 6.63281 0
148 1 11.8516 25.988 0
149 1 2.16032 1.81625 0
150 1 5.05667 12.5482 0
151 1 9.33226 26.7153 0
152 1 3.861 14.2939 0
153 1 14.7581 2.59844 0
154 1 13.7035 1.33666 0
155 1 23.6341 4.93094 0
156 1 24.5504 4.88529 0
157 1 12.7214 12.5936 0
158 1 21.3786 9.70341 0
159 1 21.3547 10.7216 0
160 1 2.52293 4.78459 0
161 1 17.932 13.5393 0
162 1 22.0854 21.5114 0
163 1 2.46901 20.5381 0
164 1 25.902 26.6222 0
165 1 12.2799 21.9309 0
166 1 11.3715 11.5784 0
167 1 24.9172 21.7521 0
168 1 17.9147 27.5402 0
169 1 29.5648 12.217 0
170 1 27.7446 24.7885 0
171 1 10.0573 14.8052 0
172 1 25.3921 25.3325 0
173 1 20.332 15.5905 0
174 1 15.219 1.86107 0
175 1 17.2453 16.3887 0
176 1 27.8745 8.00368 0
177 1 25.1529 12.0208 0
178 1 13.0257 15.1769 0
179 1 23.1012 14.4385 0
180 1 1.66298 16.0116 0
181 1 0.232479 16.3602 0
182 1 1.72387 9.91502 0
183 1 25.0022 15.609 0
184 1 23.3419 3.06794 0
185 1 19.6723 11.3166 0
186 1 19.5662 24.5261 0
187 1 0.408124 29.8685 0
188 1 20.5709 22.5981 0
189 1 5.75312 21.5818 0
190 1 27.181 18.5745 0
191 1 16.4751 13.0635 0
192 1 11.6438 3.92155 0
193 1 16.961 12.1302 0
194 1 21.3209 26.6324 0
ITEM: TIMESTEP
690
ITEM: NUMBER OF ATOMS
194
ITEM: BOX BOUNDS pp pp pp
0.0000000000000000e+00 3.0000000000000000e+01
0.0000000000000000e+00 3.0000000000000000e+01
-5.0000000000000000e-01 5.0000000000000000e-01
ITEM: ATOMS id type x y z
1 1 25.4591 9.7658 0
2 1 25.0773 17.7567 0
3 1 22.6595 28.487 0
4 1 6.18797 20.0456 0
5 1 29.9662 28.268 0
6 1 15.5492 9.68384 0
7 1 7.42647 28.2441 0
8 1 22.4995 10.575 0
9 1 15.0244 23.7695 0
10 1 17.9339 2.23686 0
11 1 26.9442 9.82904 0
12 1 9.31269 1.45032 0
13 1 19.6463 1.76951 0
14 1 9.75878 4.47214 0
15 1 23.9622 10.7802 0
16 1 12.4431 8.33249 0
17 1 28.6333 3.07688 0
18 1 24.6321 28.5477 0
19 1 19.0202 25.9794 0
20 1 4.93599 7.07721 0
21 1 13.9528 24.417 0
22 1 15.0475 11.5073 0
23 1 28.8903 13.1335 0
24 1 27.5736 6.99711 0
25 1 24.9071 8.56991 0
26 1 6.04658 25.3216 0
27 1 30.06 8.70614 0
28 1 19.488 4.72528 0
29 1 22.6975 1.84617 0
30 1 21.3264 29.3878 0
31 1 7.29913 23.4064 0
32 1 22.9975 23.0023 0
33 1 14.7918 17.5294 0
34 1 2.26523 26.6927 0
35 1 12.5291 6.15926 0
36 1 29.3151 17.2432 0
37 1 26.6106 11.5127 0
38 1 13.0776 17.0302 0
39 1 29.2585 27.2022 0
40 1 11.3897 1.35948 0
41 1 27.5478 27.0893 0
42 1 0.734698 7.22052 0
43 1 6.63289 21.1016 0
44 1 16.4309 28.9575 0
45 1 24.2898 1.68778 0
46 1 5.45334 1.59257 0
47 1 14.5533 20.2171 0
48 1 14.2322 27.3423 0
49 1 25.8413 2.85634 0
50 1 4.31326 25.5978 0
51 1 23.1649 18.9981 0
52 1 16.1585 19.6607 0
53 1 24.8928 20.5593 0
54 1 19.6466 21.6287 0
55 1 23.1705 15.853 0
56 1 5.01699 3.74558 0
57 1 9.7443 22.5724 0
58 1 7.41583 5.49293 0
59 1 21.2253 15.2051 0
60 1 27.4645 0.598967 0
61 1 18.963 13.5539 0
62 1 24.0625 5.67462 0
63 1 26.4794 4.48774 0
64 1 13.8848 13.7883 0
65 1 26.9105 22.099 0
66 1 8.08751 9.34312 0
67 1 19.2032 18.9032 0
68 1 3.70664 19.3414 0
69 1 12.3983 4.6251 0
70 1 6.46276 16.6383 0
71 1 29.8434 3.15455 0
72 1 8.16433 26.9169 0
73 1 10.7243 24.1628 0
74 1 20.0983 17.5728 0
75 1 6.37406 26.1884 0
76 1 19.071 8.85286 0
77 1 8.18568 0.706047 0
78 1 3.9158 4.93188 0
79 1 13.6213 21.7941 0
80 1 10.2363 18.3411 0
81 1 16.7785 19.0051 0
82 1 18.6069 19.7054 0
83 1 6.91102 22.0872 0
84 1 18.9443 12.214 0
85 1 7.89028 29.2141 0
86 1 22.0405 16.1876 0
87 1 17.1488 22.0246 0
88 1 7.82964 21.0931 0
89 1 18.3498 22.9683 0
90 1 13.707 4.08061 0
91 1 5.20982 25.3193 0
92 1 26.6828 17.362 0
93 1 11.3326 7.45953 0
94 1 23.4284 29.459 0
95 1 26.3303 19.4384 0
96 1 14.2181 25.9143 0
97 1 1.75187 29.32 0
98 1 2.63903 27.3882 0
99 1 22.5595 3.87839 0
100 1 16.5839 18.0955 0
101 1 11.6476 17.6033 0
102 1 16.5965 4.57653 0
103 1 23.932 8.42378 0
104 1 4.75435 24.6021 0
105 1 20.997 19.5153 0
106 1 3.0213 9.14692 0
107 1 17.4116 0.285124 0
108 1 9.89846 11.2017 0
109 1 15.7584 18.8448 0
110 1 25.1452 6.77172 0
111 1 11.506 2.81385 0
112 1 10.3734 2.16916 0
113 1 15.547 22.2415 0
114 1 6.55435 10.7045 0
115 1 24.1907 14.5628 0
116 1 6.41489 0.610586 0
117 1 24.7546 26.745 0
118 1 12.3123 9.48722 0
119 1 26.2105 6.6795 0
120 1 14.0662 7.66186 0
121 1 26.7794 20.7575 0
122 1 8.85636 18.0552 0
123 1 17.606 24.3929 0
124 1 10.7147 15.4415 0
125 1 27.903 13.1671 0
126 1 5.27649 11.6163 0
127 1 5.43265 5.4148 0
128 1 0.455431 15.5165 0
129 1 6.83594 13.6373 0
130 1 8.51245 14.1006 0
131 1 22.4501 27.1556 0
132 1 0.938564 23.4842 0
133 1 29.2723 21.6686 0
134 1 15.359 0.548569 0
135 1 11.2702 0.230398 0
136 1 21.3229 20.6981 0
137 1 27.249 15.3689 0
138 1 28.9449 14.3413 0
139 1 11.8787 16.0692 0
140 1 1.59862 4.46813 0
141 1 29.5463 20.1712 0
142 1 7.96701 7.0078 0
143 1 27.9587 2.1976 0
144 1 0.307772 27.0101 0
145 1 9.81959 15.7591 0
146 1 1.26804 14.4314 0
147 1 3.69342 6.85493 0
148 1 11.7442 25.8816 0
149 1 2.41974 1.94003 0
150 1 4.82287 12.66 0
151 1 9.1187 26.4832 0
152 1 3.96091 14.5188 0
153 1 14.6462 2.95885 0
154 1 13.7128 1.47051 0
155 1 23.6031 4.83735 0
156 1 24.6119 4.62646 0
157 1 12.8239 12.5647 0
158 1 21.4429 10.0036 0
159 1 21.2894 11.0561 0
160 1 2.51727 4.51823 0
161 1 17.7919 13.9976 0
162 1 21.9087 21.4019 0
163 1 1.80941 20.3521 0
164 1 25.8319 26.7953 0
165 1 12.1771 21.5995 0
166 1 11.4048 11.6958 0
167 1 24.6676 21.9681 0
168 1 18.0003 27.1694 0
169 1 29.6908 11.8552 0
170 1 28.0026 24.6091 0
171 1 10.0493 14.6227 0
172 1 25.6111 25.4333 0
173 1 20.3845 15.3796 0
174 1 15.0259 1.89519 0
175 1 17.0141 16.6948 0
176 1 27.7307 8.25255 0
177 1 24.8127 12.1912 0
178 1 12.5304 15.4856 0
179 1 23.1103 14.7376 0
180 1 1.46806 16.0088 0
181 1 0.459963 16.5136 0
182 1 1.59367 9.87225 0
183 1 25.1065 15.2835 0
184 1 23.6726 2.79025 0
185 1 19.5583 11.1104 0
186 1 19.3356 24.2938 0
187 1 0.313479 29.854 0
188 1 20.4819 22.808 0
189 1 5.99263 21.7253 0
190 1 27.0626 18.8392 0
191 1 16.3985 13.0603 0
192 1 11.5558 3.87379 0
193 1 17.4822 12.0712 0
194 1 21.3063 26.9557 0
ITEM: TIMESTEP
705
ITEM: NUMBER OF ATOMS
194
ITEM: BOX BOUNDS pp pp pp
0.0000000000000000e+00 3.0000000000000000e+01
0.0000000000000000e+00 3.0000000000000000e+01
-5.0000000000000000e-01 5.0000000000000000e-01
ITEM: ATOMS id type x y z
1 1 25.3873 9.81207 0
2 1 25.1837 17.4799 0
3 1 22.2015 28.2206 0
4 1 6.28801 19.655 0
5 1 0.294715 28.0781 0
6 1 15.6083 9.46352 0
7 1 7.70595 27.9149 0
8 1 22.1952 10.6302 0
9 1 15.4238 23.871 0
10 1 18.0765 2.43326 0
11 1 27.1936 9.8484 0
12 1 9.36266 1.61644 0
13 1 19.5947 1.44936 0
14 1 9.67404 4.37443 0
15 1 23.8118 10.4441 0
16 1 12.3713 7.8094 0
17 1 28.5757 2.98901 0
18 1 24.8437 29.0097 0
19 1 19.4042 26.296 0
20 1 4.90512 7.01417 0
21 1 13.7743 24.3491 0
22 1 15.161 11.2039 0
23 1 28.7292 13.5028 0
24 1 27.4783 6.98539 0
25 1 24.8665 8.39433 0
26 1 6.24318 25.3913 0
27 1 0.61696 8.67023 0
28 1 19.4527 4.6837 0
29 1 22.4124 1.8203 0
30 1 21.1703 29.6078 0
31 1 7.17982 23.4444 0
32 1 23.3054 23.03 0
33 1 14.9799 17.5058 0
34 1 2.40221 26.2355 0
35 1 12.5564 6.23285 0
36 1 29.1535 16.8879 0
37 1 26.7657 11.1768 0
38 1 13.4184 16.9543 0
39 1 29.2868 26.8497 0
40 1 11.2363 1.54638 0
41 1 27.2808 27.1446 0
42 1 0.832644 7.04433 0
43 1 6.72226 20.9225 0
44 1 16.0467 29.1257 0
45 1 24.0039 1.57145 0
46 1 5.82815 1.49746 0
47 1 14.7552 20.6366 0
48 1 14.2354 27.1433 0
49 1 25.5695 2.79269 0
50 1 4.0855 26.1487 0
51 1 23.2353 19.0161 0
52 1 16.0518 19.7314 0
53 1 25.1262 20.556 0
54 1 19.7708 21.6403 0
55 1 22.96 16.1091 0
56 1 4.65119 3.73579 0
57 1 9.86753 22.4124 0
58 1 7.82975 5.41927 0
59 1 21.225 15.4343 0
60 1 27.3435 0.851636 0
61 1 19.283 13.6478 0
62 1 23.9517 5.46945 0
63 1 26.7179 3.87379 0
64 1 13.4331 13.8583 0
65 1 27.5202 22.1895 0
66 1 8.27973 9.08987 0
67 1 19.2728 19.0505 0
68 1 4.17074 19.6278 0
69 1 12.3895 4.52323 0
70 1 6.72465 16.7908 0
71 1 30.0891 3.49435 0
72 1 8.41866 26.8899 0
73 1 11.292 24.0085 0
74 1 20.0773 17.8456 0
75 1 6.7267 26.2958 0
76 1 19.0111 8.33057 0
77 1 8.08023 0.78298 0
78 1 3.50607 5.19201 0
79 1 13.795 21.2485 0
80 1 10.254 18.3835 0
81 1 17.148 19.4052 0
82 1 18.5957 19.9635 0
83 1 7.04787 22.015 0
84 1 19.0862 12.0083 0
85 1 7.88279 28.9912 0
86 1 21.9128 15.8707 0
87 1 17.5412 22.3684 0
88 1 7.68986 20.4132 0
89 1 18.1995 22.8789 0
90 1 13.434 4.04974 0
91 1 5.20396 25.5883 0
92 1 26.5796 16.9407 0
93 1 11.2245 7.31901 0
94 1 23.6891 29.8234 0
95 1 26.0182 19.4581 0
96 1 14.2257 26.1737 0
97 1 1.89155 29.2986 0
98 1 2.741 27.6163 0
99 1 22.5658 4.41931 0
100 1 16.7572 18.2207 0
101 1 11.2512 17.6933 0
102 1 16.6392 3.99805 0
103 1 23.7965 8.40419 0
104 1 4.40189 24.7663 0
105 1 21.0794 19.5415 0
106 1 3.41974 9.24069 0
107 1 17.501 0.333244 0
108 1 9.8369 10.996 0
109 1 15.7983 18.6933 0
110 1 25.4196 6.8704 0
111 1 11.1062 3.04098 0
112 1 10.3575 2.31735 0
113 1 15.5761 21.956 0
114 1 6.41601 10.3821 0
115 1 24.0543 14.7339 0
116 1 6.48194 0.368051 0
117 1 24.7418 26.1106 0
118 1 12.2549 9.42195 0
119 1 26.7497 6.60715 0
120 1 13.8341 7.72921 0
121 1 26.4689 20.3777 0
122 1 8.74308 18.496 0
123 1 18.1755 24.0903 0
124 1 10.6326 15.3999 0
125 1 27.8006 13.2347 0
126 1 4.97885 11.6324 0
127 1 5.15666 4.96912 0
128 1 0.581413 15.6791 0
129 1 6.83793 13.7397 0
130 1 9.02992 14.3701 0
131 1 22.4653 27.3208 0
132 1 0.872773 23.3544 0
133 1 29.1761 21.5881 0
134 1 15.0378 0.799631 0
135 1 11.2841 0.272986 0
136 1 21.3728 20.5731 0
137 1 27.4717 15.3427 0
138 1 29.2259 14.7327 0
139 1 11.3403 16.4136 0
140 1 1.43559 5.0868 0
141 1 29.173 20.8199 0
142 1 8.10099 7.48041 0
143 1 27.4229 2.14231 0
144 1 0.300017 27.1683 0
145 1 9.62296 15.4618 0
146 1 1.20422 14.3333 0
147 1 3.42875 7.07735 0
148 1 11.6367 25.7747 0
149 1 2.67914 2.06388 0
150 1 4.58952 12.7712 0
151 1 9.03828 26.1528 0
152 1 4.06096 14.7434 0
153 1 14.5073 3.36854 0
154 1 13.7268 1.60605 0
155 1 23.4237 4.64829 0
156 1 24.7614 4.35841 0
157 1 12.9264 12.5365 0
158 1 21.4459 10.2574 0
159 1 21.2259 11.4033 0
160 1 2.62122 4.26822 0
161 1 17.4747 14.4951 0
162 1 21.8808 21.4917 0
163 1 1.14991 20.1659 0
164 1 25.7644 26.965 0
165 1 12.0774 21.2686 0
166 1 11.4374 11.8132 0
167 1 24.4183 22.181 0
168 1 18.0872 26.7972 0
169 1 29.8985 11.3681 0
170 1 28.2607 24.4297 0
171 1 10.0305 14.4323 0
172 1 25.8294 25.5399 0
173 1 20.0188 15.2223 0
174 1 14.8545 1.87663 0
175 1 16.782 17.0043 0
176 1 27.5862 8.49938 0
177 1 24.4724 12.3601 0
178 1 12.2413 15.6105 0
179 1 23.1097 15.0404 0
180 1 1.38552 16.0434 0
181 1 0.67441 16.7289 0
182 1 1.46467 9.82798 0
183 1 25.2072 14.9557 0
184 1 24.0071 2.51254 0
185 1 19.4428 10.9084 0
186 1 19.1032 24.0609 0
187 1 0.220727 29.8372 0
188 1 20.3908 23.0154 0
189 1 5.99139 22.0173 0
190 1 27.0196 19.0442 0
191 1 16.3248 13.0556 0
192 1 11.4813 3.88377 0
193 1 18.0048 12.0149 0
194 1 21.2955 27.2801 0
ITEM: TIMESTEP
720
ITEM: NUMBER OF ATOMS
194
ITEM: BOX BOUNDS pp pp pp
0.0000000000000000e+00 3.0000000000000000e+01
0.0000000000000000e+00 3.0000000000000000e+01
-5.0000000000000000e-01 5.0000000000000000e-01
ITEM: ATOMS id type x y z
1 1 25.3146 9.85656 0
2 1 25.2926 17.2025 0
3 1 21.7641 28.1506 0
4 1 6.39107 19.2697 0
5 1 0.639054 28.1128 0
6 1 15.6672 9.24396 0
7 1 7.96173 27.606 0
8 1 22.2631 10.8765 0
9 1 15.8219 23.9724 0
10 1 18.2194 2.62925 0
11 1 27.4418 9.86773 0
12 1 9.41537 1.78398 0
13 1 19.5423 1.12947 0
14 1 9.59011 4.27611 0
15 1 23.6608 10.1077 0
16 1 12.2978 7.28434 0
17 1 28.5171 2.89974 0
18 1 25.0525 29.4736 0
19 1 19.7855 26.6136 0
20 1 4.8713 6.95069 0
21 1 13.5973 24.2814 0
22 1 15.2748 10.8999 0
23 1 28.7225 13.903 0
24 1 27.7953 7.20688 0
25 1 25.0781 8.23646 0
26 1 6.42205 25.3123 0
27 1 1.17582 8.63565 0
28 1 19.4173 4.64211 0
29 1 22.1302 1.79468 0
30 1 21.0149 29.8269 0
31 1 7.05959 23.4788 0
32 1 23.6109 23.0603 0
33 1 15.1699 17.4846 0
34 1 2.51607 25.7244 0
35 1 12.5827 6.30823 0
36 1 28.9948 16.5312 0
37 1 26.9218 10.8372 0
38 1 13.7594 16.8781 0
39 1 29.3016 26.4965 0
40 1 11.0808 1.73246 0
41 1 27.0117 27.1994 0
42 1 0.930608 6.8689 0
43 1 6.81136 20.7362 0
44 1 15.6628 29.2947 0
45 1 23.7106 1.36381 0
46 1 6.2055 1.39812 0
47 1 14.9731 21.0533 0
48 1 14.2412 27.1938 0
49 1 25.2967 2.73035 0
50 1 3.85707 26.6964 0
51 1 23.3056 19.0342 0
52 1 15.8986 19.9147 0
53 1 25.3625 20.5511 0
54 1 19.8961 21.6539 0
55 1 23.1824 16.375 0
56 1 4.28532 3.72896 0
57 1 9.99099 22.2527 0
58 1 8.24398 5.34583 0
59 1 20.7003 15.2726 0
60 1 27.2229 1.10746 0
61 1 19.6025 13.7415 0
62 1 23.901 5.35606 0
63 1 26.9553 3.2575 0
64 1 12.9801 13.9253 0
65 1 28.131 22.279 0
66 1 8.47189 8.8361 0
67 1 19.5178 18.9619 0
68 1 4.63513 19.9141 0
69 1 12.3734 4.43108 0
70 1 6.98655 16.9433 0
71 1 0.332887 3.83383 0
72 1 8.51661 26.9898 0
73 1 11.8598 23.8547 0
74 1 20.0551 18.121 0
75 1 7.15077 26.5514 0
76 1 18.9511 7.8083 0
77 1 7.97517 0.859997 0
78 1 3.09454 5.44874 0
79 1 13.953 20.7044 0
80 1 10.2622 18.4332 0
81 1 17.5902 19.7597 0
82 1 18.409 20.4549 0
83 1 7.2115 21.95 0
84 1 19.3144 11.7924 0
85 1 7.87652 28.7741 0
86 1 21.9822 15.9356 0
87 1 17.4731 22.357 0
88 1 7.54947 19.7326 0
89 1 18.5245 23.0845 0
90 1 13.1771 4.0101 0
91 1 5.20296 25.9324 0
92 1 26.4742 16.5201 0
93 1 11.122 7.17988 0
94 1 23.9523 0.186887 0
95 1 25.6191 19.3901 0
96 1 14.2306 26.1829 0
97 1 2.03021 29.2766 0
98 1 2.86714 27.8986 0
99 1 22.3265 4.93092 0
100 1 16.9376 18.3391 0
101 1 10.8625 17.7723 0
102 1 16.6819 3.4193 0
103 1 23.4106 8.3682 0
104 1 3.9916 24.8601 0
105 1 21.1486 19.5206 0
106 1 3.81777 9.33439 0
107 1 17.5899 0.381228 0
108 1 9.77609 10.7907 0
109 1 15.8038 18.4766 0
110 1 25.6976 6.96954 0
111 1 10.71 3.19689 0
112 1 10.2822 2.38667 0
113 1 15.6059 21.671 0
114 1 6.27731 10.06 0
115 1 23.9704 14.8895 0
116 1 6.54828 0.129799 0
117 1 24.7356 25.4761 0
118 1 12.1977 9.35445 0
119 1 26.8721 6.30553 0
120 1 13.5989 7.79639 0
121 1 26.224 20.0974 0
122 1 8.63193 18.937 0
123 1 18.1606 23.8587 0
124 1 10.626 15.3504 0
125 1 27.5458 13.2762 0
126 1 4.68017 11.6527 0
127 1 4.8785 4.52154 0
128 1 0.398906 15.6691 0
129 1 6.84005 13.8421 0
130 1 9.26038 14.4666 0
131 1 22.5283 27.3687 0
132 1 0.806882 23.2246 0
133 1 29.075 22.2649 0
134 1 14.7188 1.01044 0
135 1 11.2977 0.320703 0
136 1 21.3646 20.3924 0
137 1 27.6949 15.3166 0
138 1 29.5063 15.1211 0
139 1 10.7879 16.7665 0
140 1 1.26924 5.70541 0
141 1 28.8038 20.7119 0
142 1 8.23487 7.95331 0
143 1 26.8885 2.08727 0
144 1 0.290005 27.1038 0
145 1 9.40723 15.3855 0
146 1 1.13885 14.2391 0
147 1 3.16701 7.29934 0
148 1 11.5291 25.6671 0
149 1 2.93858 2.188 0
150 1 4.35769 12.8781 0
151 1 9.13493 25.6695 0
152 1 4.1611 14.9677 0
153 1 14.3646 3.77793 0
154 1 13.739 1.7403 0
155 1 23.4363 4.39265 0
156 1 24.9056 4.09293 0
157 1 13.0288 12.5108 0
158 1 21.0739 10.3253 0
159 1 21.1658 11.7452 0
160 1 2.73214 4.02186 0
161 1 17.1578 14.9916 0
162 1 21.9227 21.6846 0
163 1 0.49005 19.9798 0
164 1 25.6972 27.1299 0
165 1 11.979 20.9378 0
166 1 11.4706 11.9308 0
167 1 24.1714 22.3901 0
168 1 18.1771 26.4239 0
169 1 0.106209 10.881 0
170 1 28.5186 24.2502 0
171 1 10.2474 14.2067 0
172 1 26.0433 25.6522 0
173 1 19.5502 15.0705 0
174 1 14.6823 1.90226 0
175 1 16.5484 17.3184 0
176 1 27.4404 8.74668 0
177 1 24.132 12.5286 0
178 1 11.9615 15.7264 0
179 1 23.0576 15.3519 0
180 1 1.64589 16.1855 0
181 1 0.851019 17.0052 0
182 1 1.33419 9.78099 0
183 1 25.304 14.6276 0
184 1 24.3484 2.32589 0
185 1 19.3268 10.7093 0
186 1 19.4419 23.8161 0
187 1 0.128987 29.819 0
188 1 20.297 23.2214 0
189 1 5.96206 22.3082 0
190 1 26.9947 19.2398 0
191 1 16.2519 13.0509 0
192 1 11.455 4.0352 0
193 1 18.4429 11.9682 0
194 1 21.216 27.5267 0
ITEM: TIMESTEP
735
ITEM: NUMBER OF ATOMS
194
ITEM: BOX BOUNDS pp pp pp
0.0000000000000000e+00 3.0000000000000000e+01
0.0000000000000000e+00 3.0000000000000000e+01
-5.0000000000000000e-01 5.0000000000000000e-01
ITEM: ATOMS id type x y z
1 1 25.2412 9.89993 0
2 1 25.405 16.923 0
3 1 21.6756 28.5423 0
4 1 6.49267 18.887 0
5 1 0.999156 28.244 0
6 1 15.7257 9.02558 0
7 1 7.94726 27.6017 0
8 1 22.3426 11.1308 0
9 1 16.22 24.0735 0
10 1 18.3618 2.82534 0
11 1 27.7091 9.8735 0
12 1 9.38751 1.89932 0
13 1 19.4898 0.809444 0
14 1 9.50776 4.1765 0
15 1 23.5096 9.77077 0
16 1 12.1208 6.98381 0
17 1 28.456 2.81032 0
18 1 25.2571 29.9401 0
19 1 20.153 26.9228 0
20 1 4.83626 6.88721 0
21 1 13.4192 24.2137 0
22 1 15.3889 10.5948 0
23 1 28.7154 14.3061 0
24 1 28.1645 7.46406 0
25 1 25.2899 8.07711 0
26 1 6.59931 25.2368 0
27 1 1.73532 8.60367 0
28 1 19.3818 4.60039 0
29 1 21.8496 1.76849 0
30 1 20.8596 30.0456 0
31 1 6.93809 23.5101 0
32 1 23.7032 23.3839 0
33 1 15.3572 17.4572 0
34 1 2.63234 25.2136 0
35 1 12.7109 6.1607 0
36 1 28.8382 16.1707 0
37 1 27.0605 10.5188 0
38 1 14.1024 16.8027 0
39 1 29.3188 26.1451 0
40 1 10.9564 1.89497 0
41 1 26.7378 27.2532 0
42 1 0.948802 6.99822 0
43 1 6.90279 20.5499 0
44 1 15.2788 29.4643 0
45 1 23.4071 1.14157 0
46 1 6.58503 1.29391 0
47 1 14.8598 21.183 0
48 1 14.2492 27.4528 0
49 1 25.1907 2.78384 0
50 1 3.62821 27.2434 0
51 1 23.3758 19.0524 0
52 1 15.7448 20.0973 0
53 1 25.5044 20.6049 0
54 1 20.0218 21.6691 0
55 1 23.4036 16.6616 0
56 1 3.84194 3.64691 0
57 1 10.1146 22.0929 0
58 1 8.65918 5.27157 0
59 1 20.0724 15.0486 0
60 1 27.114 1.34149 0
61 1 19.9217 13.8394 0
62 1 23.8569 5.25319 0
63 1 27.2006 2.65031 0
64 1 12.5268 13.9892 0
65 1 28.3718 22.2896 0
66 1 8.82348 9.02556 0
67 1 19.6502 19.0577 0
68 1 5.10022 20.2002 0
69 1 12.2519 4.45719 0
70 1 7.24841 17.0959 0
71 1 0.576552 4.17339 0
72 1 8.88456 26.785 0
73 1 12.4288 23.7021 0
74 1 20.1465 18.2143 0
75 1 7.57441 26.8011 0
76 1 18.8912 7.28603 0
77 1 7.86869 0.936832 0
78 1 2.682 5.70324 0
79 1 14.0911 20.1613 0
80 1 10.1197 18.6613 0
81 1 18.0009 20.0674 0
82 1 18.2521 20.9906 0
83 1 7.36977 21.8833 0
84 1 19.7993 11.5392 0
85 1 7.86979 28.5589 0
86 1 22.1557 16.0651 0
87 1 17.3146 22.2761 0
88 1 7.4107 19.0538 0
89 1 19.0515 23.039 0
90 1 13.0944 3.87707 0
91 1 5.2019 26.2749 0
92 1 26.366 16.1008 0
93 1 11.0249 7.04073 0
94 1 24.2244 0.543426 0
95 1 25.1012 19.1622 0
96 1 14.2332 25.9831 0
97 1 2.16875 29.2526 0
98 1 2.99354 28.1803 0
99 1 22.0233 5.44366 0
100 1 17.1187 18.4618 0
101 1 10.6563 17.8055 0
102 1 16.7255 2.84013 0
103 1 23.0268 8.33318 0
104 1 3.58157 24.9569 0
105 1 21.1683 19.3074 0
106 1 4.21574 9.42794 0
107 1 17.6791 0.429342 0
108 1 9.7155 10.5855 0
109 1 15.8062 18.2777 0
110 1 25.9777 7.06991 0
111 1 10.4149 3.51534 0
112 1 10.1487 2.3593 0
113 1 15.9893 21.6688 0
114 1 6.13846 9.73799 0
115 1 23.9221 15.0306 0
116 1 6.61527 -0.103492 0
117 1 24.7339 24.8424 0
118 1 12.1406 9.28622 0
119 1 26.9382 5.9721 0
120 1 13.3597 7.86192 0
121 1 26.1905 19.921 0
122 1 8.51978 19.3793 0
123 1 17.8047 23.9499 0
124 1 10.6177 15.3002 0
125 1 27.2924 13.3191 0
126 1 4.38027 11.6779 0
127 1 4.6747 4.14963 0
128 1 0.460449 15.792 0
129 1 6.84224 13.9445 0
130 1 9.18092 14.1389 0
131 1 22.6156 27.3728 0
132 1 0.740384 23.0945 0
133 1 29.3455 23.0448 0
134 1 14.4058 1.0194 0
135 1 11.3107 0.372061 0
136 1 21.4054 20.4064 0
137 1 27.9197 15.2906 0
138 1 29.5374 15.3769 0
139 1 10.2032 16.9818 0
140 1 1.18388 6.0196 0
141 1 28.4338 20.5806 0
142 1 8.20936 7.9831 0
143 1 26.3351 2.04548 0
144 1 0.262367 26.9423 0
145 1 9.30199 15.7762 0
146 1 1.07214 14.1472 0
147 1 2.90607 7.52073 0
148 1 11.4214 25.5587 0
149 1 3.19819 2.31329 0
150 1 4.12718 12.9803 0
151 1 9.23058 25.1886 0
152 1 4.26127 15.1916 0
153 1 14.2169 4.18744 0
154 1 13.6518 1.85193 0
155 1 23.5102 4.12327 0
156 1 25.047 3.82542 0
157 1 13.1298 12.488 0
158 1 20.6877 10.3906 0
159 1 21.1075 12.081 0
160 1 2.84606 3.77736 0
161 1 16.8408 15.4881 0
162 1 21.9628 21.8744 0
163 1 -0.170523 19.7941 0
164 1 25.6344 27.292 0
165 1 11.8808 20.607 0
166 1 11.5047 12.0488 0
167 1 24.1378 22.3056 0
168 1 18.2687 26.0505 0
169 1 0.315429 10.3926 0
170 1 28.7769 24.0697 0
171 1 10.6703 13.9442 0
172 1 26.253 25.7673 0
173 1 19.0822 14.9147 0
174 1 14.6038 2.15304 0
175 1 16.3188 17.6214 0
176 1 27.2923 8.98427 0
177 1 23.7916 12.6973 0
178 1 11.6765 15.8426 0
179 1 22.9739 15.6529 0
180 1 1.91085 16.3266 0
181 1 1.02389 17.2802 0
182 1 1.20171 9.73167 0
183 1 25.3968 14.3002 0
184 1 24.5281 2.04651 0
185 1 19.2105 10.5075 0
186 1 19.6365 23.8303 0
187 1 0.0379446 29.7998 0
188 1 20.5764 23.1633 0
189 1 5.93827 22.5985 0
190 1 26.9714 19.4331 0
191 1 16.1791 13.0463 0
192 1 11.3685 4.1691 0
193 1 18.6269 11.9622 0
194 1 20.7746 27.3647 0
ITEM: TIMESTEP
750
ITEM: NUMBER OF ATOMS
194
ITEM: BOX BOUNDS pp pp pp
0.0000000000000000e+00 3.0000000000000000e+01
0.0000000000000000e+00 3.0000000000000000e+01
-5.0000000000000000e-01 5.0000000000000000e-01
ITEM: ATOMS id type x y z
1 1 25.1675 9.94254 0
2 1 25.5208 16.6402 0
3 1 21.5918 28.9365 0
4 1 6.42629 18.4864 0
5 1 1.35984 28.3748 0
6 1 15.7839 8.80891 0
7 1 8.06138 27.68 0
8 1 22.4202 11.3855 0
9 1 16.6156 24.1748 0
10 1 18.503 3.02162 0
11 1 28.103 9.81905 0
12 1 9.13231 1.87373 0
13 1 19.4386 0.488483 0
14 1 9.36373 4.10979 0
15 1 23.3579 9.43214 0
16 1 11.8486 6.90592 0
17 1 28.3903 2.72003 0
18 1 25.4588 0.408945 0
19 1 19.8046 26.7171 0
20 1 4.80077 6.82381 0
21 1 13.3593 24.261 0
22 1 15.5034 10.288 0
23 1 28.7247 14.6952 0
24 1 28.5324 7.72158 0
25 1 25.5036 7.91553 0
26 1 6.77621 25.1618 0
27 1 2.29284 8.5753 0
28 1 19.3462 4.55835 0
29 1 21.5699 1.74141 0
30 1 20.703 0.264685 0
31 1 6.8137 23.5383 0
32 1 23.7386 23.7984 0
33 1 15.4303 17.3283 0
34 1 2.4178 24.7223 0
35 1 12.9532 5.79125 0
36 1 28.6119 15.9076 0
37 1 27.0937 10.3026 0
38 1 14.4488 16.7292 0
39 1 29.3399 25.7968 0
40 1 10.9582 1.98014 0
41 1 26.4796 27.3032 0
42 1 0.837266 7.63123 0
43 1 6.99544 20.3638 0
44 1 14.8943 29.6345 0
45 1 23.0865 0.940566 0
46 1 6.95309 1.18859 0
47 1 14.6279 21.2208 0
48 1 14.2572 27.7094 0
49 1 25.2948 2.80698 0
50 1 3.43091 27.7305 0
51 1 23.4472 19.0706 0
52 1 15.5879 20.2831 0
53 1 25.5525 20.7343 0
54 1 20.1478 21.6866 0
55 1 23.6237 16.9521 0
56 1 3.66969 3.44003 0
57 1 10.2384 21.9331 0
58 1 9.07663 5.19417 0
59 1 19.508 14.8306 0
60 1 26.9769 1.47232 0
61 1 20.2398 13.9417 0
62 1 23.8117 5.14662 0
63 1 27.5044 2.14828 0
64 1 12.0726 14.0515 0
65 1 28.4463 22.2521 0
66 1 9.24565 9.39344 0
67 1 19.6627 19.3543 0
68 1 5.5666 20.4861 0
69 1 12.1962 4.56833 0
70 1 7.51013 17.2499 0
71 1 0.820583 4.51361 0
72 1 9.27312 26.5532 0
73 1 12.8796 23.4351 0
74 1 20.3614 18.1096 0
75 1 7.8821 26.7316 0
76 1 18.8312 6.76374 0
77 1 7.77342 1.01044 0
78 1 2.2671 5.95816 0
79 1 14.2333 19.6219 0
80 1 9.9224 18.966 0
81 1 18.3688 20.2782 0
82 1 18.1371 21.6244 0
83 1 7.52475 21.8153 0
84 1 20.2909 11.2981 0
85 1 7.82918 28.6056 0
86 1 22.1447 16.2889 0
87 1 17.1667 22.2003 0
88 1 7.44141 18.3958 0
89 1 19.5586 22.946 0
90 1 13.082 3.70491 0
91 1 5.20098 26.617 0
92 1 26.2546 15.684 0
93 1 10.9111 6.90174 0
94 1 24.5173 0.859938 0
95 1 24.5833 18.936 0
96 1 14.2357 25.7856 0
97 1 2.30776 29.224 0
98 1 3.08593 28.5242 0
99 1 21.7214 5.95591 0
100 1 17.2939 18.5835 0
101 1 10.5758 17.9545 0
102 1 16.7702 2.26081 0
103 1 22.644 8.30049 0
104 1 3.50279 25.035 0
105 1 21.1791 19.07 0
106 1 4.61435 9.52161 0
107 1 17.7688 0.477669 0
108 1 9.65439 10.3791 0
109 1 15.5792 18.5118 0
110 1 26.2582 7.17144 0
111 1 10.1844 3.80592 0
112 1 10.114 2.5474 0
113 1 16.4826 21.7455 0
114 1 5.99888 9.41595 0
115 1 23.8767 15.1711 0
116 1 6.68387 29.6673 0
117 1 24.7324 24.2083 0
118 1 12.084 9.21727 0
119 1 27.0027 5.64147 0
120 1 13.1177 7.92587 0
121 1 26.0873 19.7524 0
122 1 8.40588 19.8204 0
123 1 17.45 24.0445 0
124 1 10.6077 15.2487 0
125 1 27.04 13.3631 0
126 1 4.07947 11.7075 0
127 1 4.5667 3.8527 0
128 1 0.803126 16.0612 0
129 1 6.84455 14.0469 0
130 1 9.10443 13.8122 0
131 1 22.7 27.3791 0
132 1 0.670396 22.9649 0
133 1 29.8998 23.7939 0
134 1 14.0926 1.0045 0
135 1 11.323 0.425687 0
136 1 21.4514 20.4444 0
137 1 28.1094 15.2584 0
138 1 29.3774 15.4102 0
139 1 9.54711 17.0033 0
140 1 1.23154 5.82986 0
141 1 28.0646 20.449 0
142 1 8.11391 7.83569 0
143 1 25.7523 2.00301 0
144 1 0.232082 26.78 0
145 1 9.20091 16.1645 0
146 1 1.00463 14.0566 0
147 1 2.64468 7.74071 0
148 1 11.3138 25.45 0
149 1 3.4581 2.44346 0
150 1 3.89759 13.0781 0
151 1 9.32593 24.7093 0
152 1 4.36143 15.4154 0
153 1 14.0648 4.5955 0
154 1 13.4938 1.9452 0
155 1 23.5866 3.85686 0
156 1 25.1613 3.73172 0
157 1 13.229 12.4664 0
158 1 20.3017 10.4443 0
159 1 21.0473 12.4131 0
160 1 2.59246 3.5787 0
161 1 16.5239 15.9848 0
162 1 22.0014 22.0631 0
163 1 29.1673 19.6093 0
164 1 25.5559 27.4545 0
165 1 11.7828 20.2762 0
166 1 11.5399 12.1677 0
167 1 24.1617 22.1308 0
168 1 18.3607 25.6771 0
169 1 0.383545 9.98766 0
170 1 28.9215 23.9667 0
171 1 11.0921 13.6863 0
172 1 26.4616 25.8853 0
173 1 18.552 14.7481 0
174 1 14.5967 2.44614 0
175 1 16.4358 17.5937 0
176 1 27.1224 9.17852 0
177 1 23.4511 12.8659 0
178 1 11.3882 15.9579 0
179 1 23.0746 15.8557 0
180 1 2.17025 16.4702 0
181 1 1.19919 17.5497 0
182 1 1.21217 9.59503 0
183 1 25.4884 13.9734 0
184 1 24.524 1.64146 0
185 1 19.0981 10.3088 0
186 1 19.5716 24.084 0
187 1 29.9475 29.7799 0
188 1 21.1366 22.9044 0
189 1 5.91938 22.8905 0
190 1 27.1109 19.5416 0
191 1 16.1064 13.0417 0
192 1 11.1481 4.25724 0
193 1 18.8048 11.9559 0
194 1 21.0465 27.7137 0
ITEM: TIMESTEP
765
ITEM: NUMBER OF ATOMS
194
ITEM: BOX BOUNDS pp pp pp
0.0000000000000000e+00 3.0000000000000000e+01
0.0000000000000000e+00 3.0000000000000000e+01
-5.0000000000000000e-01 5.0000000000000000e-01
ITEM: ATOMS id type x y z
1 1 25.094 9.98462 0
2 1 25.6391 16.3534 0
3 1 21.5057 29.3277 0
4 1 6.2627 18.083 0
5 1 1.72286 28.5066 0
6 1 15.8416 8.59479 0
7 1 8.27343 27.6407 0
8 1 22.4971 11.6415 0
9 1 16.4165 24.3843 0
10 1 18.6441 3.21864 0
11 1 28.5201 9.75562 0
12 1 8.86779 1.84237 0
13 1 19.3906 0.166906 0
14 1 8.96492 4.14239 0
15 1 23.2043 9.09021 0
16 1 11.7013 6.82881 0
17 1 28.4147 2.72166 0
18 1 25.7221 0.871063 0
19 1 19.3986 26.4689 0
20 1 4.76513 6.76046 0
21 1 13.4873 24.522 0
22 1 15.6184 9.97866 0
23 1 28.9018 14.7012 0
24 1 28.9 7.9796 0
25 1 25.7023 7.76694 0
26 1 6.95318 25.0857 0
27 1 2.78388 8.83542 0
28 1 19.31 4.51554 0
29 1 21.2906 1.71267 0
30 1 20.5436 0.484026 0
31 1 6.70804 23.5783 0
32 1 23.754 24.2111 0
33 1 15.4747 17.1868 0
34 1 1.98803 24.2304 0
35 1 13.1888 5.42238 0
36 1 28.4633 16.1429 0
37 1 27.1135 10.1603 0
38 1 14.7778 16.6428 0
39 1 29.3642 25.4509 0
40 1 11.0131 2.03049 0
41 1 26.3428 27.3281 0
42 1 0.727685 8.26437 0
43 1 7.08812 20.1786 0
44 1 14.5087 29.8061 0
45 1 22.7684 0.740822 0
46 1 6.90529 1.1671 0
47 1 14.3995 21.2541 0
48 1 14.2654 27.9657 0
49 1 25.3368 2.81802 0
50 1 3.36189 27.9389 0
51 1 23.4085 19.1298 0
52 1 15.4265 20.4713 0
53 1 25.5971 20.8667 0
54 1 20.2741 21.7085 0
55 1 23.8408 17.2373 0
56 1 3.70708 3.32937 0
57 1 10.3622 21.7731 0
58 1 9.49631 5.12117 0
59 1 19.0401 14.6213 0
60 1 26.6195 1.24364 0
61 1 20.5563 14.0437 0
62 1 23.7658 5.03503 0
63 1 27.9319 1.91463 0
64 1 11.7994 14.2627 0
65 1 28.5214 22.2152 0
66 1 9.58345 9.43754 0
67 1 19.6769 19.6501 0
68 1 6.03649 20.7715 0
69 1 12.1644 4.68587 0
70 1 7.83432 17.0793 0
71 1 1.06165 4.8374 0
72 1 9.65687 26.3221 0
73 1 13.1431 22.9557 0
74 1 20.5775 18.0096 0
75 1 8.14579 26.4851 0
76 1 18.7713 6.24126 0
77 1 8.09495 0.998389 0
78 1 1.92946 6.24561 0
79 1 14.3791 19.0843 0
80 1 9.72553 19.2689 0
81 1 18.7372 20.4884 0
82 1 18.1579 22.2031 0
83 1 7.67823 21.7458 0
84 1 20.7875 11.3155 0
85 1 7.73744 28.9465 0
86 1 22.0402 16.5595 0
87 1 17.3193 22.4891 0
88 1 7.50932 18.0674 0
89 1 20.0628 22.8359 0
90 1 13.0707 3.53709 0
91 1 5.19989 26.9589 0
92 1 26.1406 15.2704 0
93 1 10.6754 6.76138 0
94 1 24.7525 0.503211 0
95 1 24.1765 18.6696 0
96 1 14.2375 25.5875 0
97 1 2.27054 29.2916 0
98 1 3.2235 29.0491 0
99 1 21.4198 6.46813 0
100 1 17.4645 18.7019 0
101 1 10.4931 18.1047 0
102 1 16.8156 1.68132 0
103 1 22.2637 8.27142 0
104 1 3.63912 25.1135 0
105 1 21.1865 18.834 0
106 1 5.01481 9.61558 0
107 1 17.8597 0.52636 0
108 1 9.67715 10.4958 0
109 1 15.313 18.8178 0
110 1 26.5546 7.25965 0
111 1 10.1579 3.96198 0
112 1 10.0344 2.78051 0
113 1 16.5395 21.5118 0
114 1 5.85738 9.09374 0
115 1 23.852 15.2919 0
116 1 6.75537 29.4396 0
117 1 24.7515 23.5742 0
118 1 12.0283 9.14699 0
119 1 27.0667 5.312 0
120 1 12.8734 7.98965 0
121 1 25.9074 19.6107 0
122 1 8.28887 20.2609 0
123 1 17.6909 24.0302 0
124 1 10.5861 15.1842 0
125 1 26.7862 13.4082 0
126 1 3.77817 11.7409 0
127 1 4.56092 3.60166 0
128 1 1.14738 16.3322 0
129 1 6.84703 14.1493 0
130 1 9.02857 13.486 0
131 1 22.7828 27.3863 0
132 1 0.597783 22.8378 0
133 1 0.653326 24.4319 0
134 1 13.7815 0.989888 0
135 1 11.3349 0.48116 0
136 1 21.4964 20.4803 0
137 1 27.7309 15.1237 0
138 1 29.5419 15.4314 0
139 1 8.98747 17.3642 0
140 1 1.20519 5.62593 0
141 1 27.7101 20.3343 0
142 1 8.01898 7.68906 0
143 1 25.3117 1.67409 0
144 1 0.198984 26.6148 0
145 1 9.00523 16.2133 0
146 1 0.936688 13.9667 0
147 1 2.44565 7.67304 0
148 1 11.206 25.3412 0
149 1 3.69045 2.3971 0
150 1 3.66855 13.172 0
151 1 9.42144 24.2309 0
152 1 4.46149 15.6391 0
153 1 13.9119 4.99892 0
154 1 13.3368 2.04081 0
155 1 23.666 3.59471 0
156 1 25.2321 3.92907 0
157 1 13.3267 12.4452 0
158 1 19.9119 10.2432 0
159 1 20.9849 12.7419 0
160 1 2.05417 3.41482 0
161 1 16.2058 16.4848 0
162 1 22.1719 22.1121 0
163 1 28.5013 19.4269 0
164 1 25.3564 27.638 0
165 1 11.6845 19.9454 0
166 1 11.5758 12.2891 0
167 1 24.1854 21.9575 0
168 1 18.4534 25.3031 0
169 1 0.149891 9.74817 0
170 1 28.8687 23.972 0
171 1 11.332 13.2793 0
172 1 26.6697 26.0074 0
173 1 17.9273 14.5721 0
174 1 14.587 2.73629 0
175 1 16.6428 17.5218 0
176 1 26.9424 9.30694 0
177 1 23.1102 13.034 0
178 1 11.1104 16.0848 0
179 1 23.2522 16.037 0
180 1 2.42428 16.6151 0
181 1 1.37604 17.8147 0
182 1 1.52648 9.28959 0
183 1 25.5814 13.647 0
184 1 24.4793 1.92313 0
185 1 18.9852 10.1126 0
186 1 19.5125 24.351 0
187 1 29.8574 29.7598 0
188 1 21.5602 22.7831 0
189 1 5.88253 23.1713 0
190 1 27.318 19.6006 0
191 1 16.0337 13.0371 0
192 1 10.9573 4.36265 0
193 1 18.9851 11.9474 0
194 1 21.3781 28.1083 0
ITEM: TIMESTEP
780
ITEM: NUMBER OF ATOMS
194
ITEM: BOX BOUNDS pp pp pp
0.0000000000000000e+00 3.0000000000000000e+01
0.0000000000000000e+00 3.0000000000000000e+01
-5.0000000000000000e-01 5.0000000000000000e-01
ITEM: ATOMS id type x y z
1 1 25.021 10.0263 0
2 1 25.7588 16.062 0
3 1 21.4179 29.7163 0
4 1 6.10402 17.6794 0
5 1 2.03484 28.5247 0
6 1 15.8987 8.38438 0
7 1 8.48566 27.6054 0
8 1 22.5731 11.8998 0
9 1 16.0855 24.6198 0
10 1 18.7865 3.41845 0
11 1 28.9344 9.69152 0
12 1 8.61935 1.84623 0
13 1 19.3459 29.8471 0
14 1 8.55656 4.17125 0
15 1 23.047 8.74498 0
16 1 11.6062 6.75441 0
17 1 28.5768 2.89289 0
18 1 25.6965 0.838357 0
19 1 18.9912 26.2184 0
20 1 4.72945 6.69716 0
21 1 13.6111 24.778 0
22 1 15.734 9.66562 0
23 1 28.9909 14.548 0
24 1 29.2682 8.23906 0
25 1 25.859 7.64465 0
26 1 7.13009 25.0077 0
27 1 3.2588 9.20055 0
28 1 19.272 4.47085 0
29 1 21.0102 1.68037 0
30 1 20.3829 0.702979 0
31 1 6.73462 23.6836 0
32 1 23.7567 24.6236 0
33 1 15.3886 17.4848 0
34 1 1.5581 23.738 0
35 1 12.9113 5.29509 0
36 1 28.3387 16.4119 0
37 1 27.1838 10.291 0
38 1 14.9306 16.4112 0
39 1 29.3905 25.1049 0
40 1 11.0657 2.08125 0
41 1 26.2545 27.3371 0
42 1 0.620913 8.90038 0
43 1 7.18144 19.9969 0
44 1 14.1209 29.9803 0
45 1 22.4496 0.541114 0
46 1 6.78134 1.15904 0
47 1 14.1752 21.2843 0
48 1 14.2736 28.2225 0
49 1 25.3403 2.95435 0
50 1 3.29797 28.1314 0
51 1 23.0781 19.3231 0
52 1 15.2621 20.6619 0
53 1 25.6425 20.995 0
54 1 20.4011 21.7281 0
55 1 24.0545 17.4972 0
56 1 3.55729 3.41636 0
57 1 10.4861 21.6129 0
58 1 9.91975 5.05154 0
59 1 18.5834 14.4116 0
60 1 26.886 1.20267 0
61 1 20.8721 14.1432 0
62 1 23.7203 4.91978 0
63 1 28.2224 1.51353 0
64 1 11.674 14.6201 0
65 1 28.5967 22.1788 0
66 1 9.8454 9.15202 0
67 1 19.6923 19.945 0
68 1 6.51147 21.0548 0
69 1 12.1307 4.80085 0
70 1 8.19107 16.5216 0
71 1 1.21067 4.57814 0
72 1 10.0385 26.0909 0
73 1 13.407 22.4771 0
74 1 20.7571 17.8562 0
75 1 8.41083 26.2352 0
76 1 18.7118 5.71781 0
77 1 8.47871 0.93783 0
78 1 1.73804 6.63659 0
79 1 14.284 18.547 0
80 1 9.53011 19.569 0
81 1 19.1061 20.6998 0
82 1 18.5668 22.6333 0
83 1 7.83108 21.6732 0
84 1 21.2898 11.3616 0
85 1 7.69742 29.2767 0
86 1 21.9395 16.8291 0
87 1 17.1523 22.9796 0
88 1 7.48457 18.1644 0
89 1 20.57 22.7296 0
90 1 13.0595 3.37043 0
91 1 5.19849 27.3008 0
92 1 26.0263 14.8595 0
93 1 10.3886 6.61843 0
94 1 24.9257 0.091583 0
95 1 24.0629 18.2896 0
96 1 14.2433 25.3933 0
97 1 2.05217 29.5828 0
98 1 3.58811 29.4801 0
99 1 21.1184 6.98085 0
100 1 17.6332 18.8177 0
101 1 10.4072 18.2573 0
102 1 16.8628 1.10032 0
103 1 21.8871 8.24531 0
104 1 3.77448 25.1917 0
105 1 21.2297 18.6536 0
106 1 5.37259 9.74765 0
107 1 17.9508 0.576213 0
108 1 9.77575 10.942 0
109 1 15.2897 19.1229 0
110 1 26.8938 7.32206 0
111 1 9.95341 4.02188 0
112 1 9.95488 3.01337 0
113 1 16.5275 21.2254 0
114 1 5.75837 8.73343 0
115 1 23.8831 15.3453 0
116 1 6.77642 29.2225 0
117 1 24.7826 22.9387 0
118 1 11.9745 9.07379 0
119 1 27.1304 4.98286 0
120 1 12.6259 8.05513 0
121 1 25.7298 19.4732 0
122 1 8.16725 20.7022 0
123 1 18.0656 23.9898 0
124 1 10.5553 15.1018 0
125 1 26.5442 13.4554 0
126 1 3.47665 11.7776 0
127 1 4.7672 3.42628 0
128 1 1.49604 16.6062 0
129 1 6.84967 14.2517 0
130 1 8.95282 13.1599 0
131 1 22.8639 27.3944 0
132 1 0.524772 22.7133 0
133 1 1.40587 25.0692 0
134 1 13.4719 0.974411 0
135 1 11.3465 0.538519 0
136 1 21.5405 20.5163 0
137 1 27.2887 14.9795 0
138 1 29.8326 15.587 0
139 1 8.45828 17.8692 0
140 1 1.12622 5.90285 0
141 1 27.535 20.5616 0
142 1 7.92414 7.54253 0
143 1 24.8781 1.462 0
144 1 0.164042 26.4466 0
145 1 8.83666 16.0809 0
146 1 0.868274 13.8772 0
147 1 2.25668 7.50013 0
148 1 11.0972 25.2328 0
149 1 3.89537 2.07806 0
150 1 3.43977 13.2626 0
151 1 9.51723 23.7529 0
152 1 4.56137 15.8629 0
153 1 14.2697 5.15818 0
154 1 13.183 2.13872 0
155 1 23.7487 3.33474 0
156 1 25.3002 4.1296 0
157 1 13.4232 12.424 0
158 1 19.6885 10.0418 0
159 1 20.9214 13.0705 0
160 1 1.51773 3.25153 0
161 1 16.1931 16.6887 0
162 1 22.6777 21.8046 0
163 1 28.0502 19.2122 0
164 1 25.1095 27.8331 0
165 1 11.5856 19.6144 0
166 1 11.7192 12.0683 0
167 1 24.2098 21.7852 0
168 1 18.5468 24.9275 0
169 1 29.9146 9.50772 0
170 1 28.818 23.9787 0
171 1 11.3153 13.0706 0
172 1 26.8765 26.1338 0
173 1 17.2931 14.3953 0
174 1 14.573 3.02484 0
175 1 16.8521 17.4576 0
176 1 26.7155 9.16138 0
177 1 22.7681 13.1999 0
178 1 10.8431 16.2279 0
179 1 23.373 16.292 0
180 1 2.67253 16.7603 0
181 1 1.55374 18.0757 0
182 1 1.84216 8.97954 0
183 1 25.6631 13.3206 0
184 1 24.191 2.32081 0
185 1 18.7012 9.89273 0
186 1 19.4523 24.6171 0
187 1 29.7676 29.7395 0
188 1 21.644 23.0161 0
189 1 5.71423 23.3889 0
190 1 27.1265 19.3507 0
191 1 15.961 13.0326 0
192 1 10.9562 4.56247 0
193 1 19.1664 11.9377 0
194 1 21.7118 28.5071 0
ITEM: TIMESTEP
795
ITEM: NUMBER OF ATOMS
194
ITEM: BOX BOUNDS pp pp pp
0.0000000000000000e+00 3.0000000000000000e+01
0.0000000000000000e+00 3.0000000000000000e+01
-5.0000000000000000e-01 5.0000000000000000e-01
ITEM: ATOMS id type x y z
1 1 24.9486 10.0676 0
2 1 25.8796 15.7651 0
3 1 21.3172 30.0985 0
4 1 5.94849 17.2766 0
5 1 2.32569 28.473 0
6 1 15.9552 8.17891 0
7 1 8.69737 27.5667 0
8 1 22.6461 12.1613 0
9 1 15.7548 24.8549 0
10 1 18.9233 3.60429 0
11 1 28.9233 9.76803 0
12 1 8.40384 1.98276 0
13 1 19.3031 29.5307 0
14 1 8.1542 4.20038 0
15 1 22.885 8.3977 0
16 1 11.5092 6.67989 0
17 1 28.7389 3.06297 0
18 1 25.5431 0.573925 0
19 1 18.5829 25.9626 0
20 1 4.69386 6.63402 0
21 1 13.5127 24.8379 0
22 1 15.8502 9.34765 0
23 1 29.0803 14.3975 0
24 1 29.6328 8.48452 0
25 1 26.0047 7.52838 0
26 1 7.30631 24.9263 0
27 1 3.73042 9.5647 0
28 1 19.2392 4.44194 0
29 1 20.7366 1.65597 0
30 1 20.2155 0.908221 0
31 1 6.80011 23.8071 0
32 1 23.7601 25.0354 0
33 1 15.1095 18.0292 0
34 1 1.12786 23.2454 0
35 1 12.7442 5.34802 0
36 1 28.2149 16.6786 0
37 1 27.2582 10.4361 0
38 1 15.055 16.1495 0
39 1 29.4174 24.758 0
40 1 11.1165 2.13241 0
41 1 26.1649 27.3437 0
42 1 0.789111 9.42251 0
43 1 7.27643 19.8217 0
44 1 13.7329 0.154264 0
45 1 22.1413 0.345668 0
46 1 6.65947 1.15014 0
47 1 13.9665 21.2884 0
48 1 14.2817 28.4803 0
49 1 25.3378 3.08997 0
50 1 3.23517 28.3282 0
51 1 22.746 19.5164 0
52 1 15.0963 20.8543 0
53 1 25.6872 21.1217 0
54 1 20.5221 21.7167 0
55 1 24.2702 17.1506 0
56 1 3.3968 3.49994 0
57 1 10.61 21.4526 0
58 1 10.2568 5.04119 0
59 1 18.1223 14.2018 0
60 1 27.4612 1.25077 0
61 1 21.192 14.2693 0
62 1 23.6756 4.80205 0
63 1 28.5095 1.11267 0
64 1 11.5461 14.9773 0
65 1 28.6723 22.1429 0
66 1 10.1076 8.86782 0
67 1 19.787 20.1216 0
68 1 6.9934 21.335 0
69 1 11.8866 4.77681 0
70 1 7.94797 16.3786 0
71 1 1.35272 4.24914 0
72 1 10.419 25.8601 0
73 1 13.6601 22.0222 0
74 1 20.8617 17.5761 0
75 1 8.67702 25.9886 0
76 1 18.6526 5.19254 0
77 1 8.82797 0.744658 0
78 1 1.4476 6.90478 0
79 1 14.0536 17.9947 0
80 1 9.33507 19.8678 0
81 1 19.3979 21.0311 0
82 1 18.9768 23.065 0
83 1 7.90424 21.8658 0
84 1 21.7947 11.4103 0
85 1 7.80581 29.6011 0
86 1 21.8392 17.0998 0
87 1 16.9863 23.4729 0
88 1 7.174 18.3057 0
89 1 21.0595 22.6389 0
90 1 13.05 3.20407 0
91 1 5.19685 27.6429 0
92 1 25.9138 14.4494 0
93 1 10.1048 6.4741 0
94 1 25.0902 29.6724 0
95 1 23.9468 18.5131 0
96 1 14.4719 25.3949 0
97 1 1.8573 29.9433 0
98 1 3.94935 29.9073 0
99 1 20.8183 7.49565 0
100 1 17.8008 18.932 0
101 1 10.3204 18.4118 0
102 1 16.9131 0.517584 0
103 1 21.514 8.21924 0
104 1 3.90967 25.2698 0
105 1 21.3501 18.5992 0
106 1 5.71064 9.9036 0
107 1 18.0404 0.626952 0
108 1 9.87447 11.387 0
109 1 15.4036 19.4423 0
110 1 27.2442 7.37997 0
111 1 9.72089 4.11311 0
112 1 9.88056 3.18156 0
113 1 16.5125 20.9383 0
114 1 5.67881 8.34901 0
115 1 23.9259 15.3819 0
116 1 6.64979 29.0118 0
117 1 24.8155 22.3057 0
118 1 11.9213 8.99941 0
119 1 27.1938 4.65366 0
120 1 12.3767 8.12052 0
121 1 25.5528 19.3383 0
122 1 8.11766 20.8737 0
123 1 18.3887 23.8071 0
124 1 10.5253 15.0194 0
125 1 26.5021 13.5464 0
126 1 3.17505 11.8169 0
127 1 4.98337 3.25232 0
128 1 1.84781 16.8835 0
129 1 6.85243 14.354 0
130 1 8.8772 12.8337 0
131 1 22.9439 27.4037 0
132 1 0.452185 22.5901 0
133 1 2.15694 25.706 0
134 1 13.1613 0.963169 0
135 1 11.358 0.597969 0
136 1 21.5841 20.5532 0
137 1 26.8447 14.8351 0
138 1 30.1211 15.7415 0
139 1 8.21372 18.3265 0
140 1 0.97796 6.15496 0
141 1 27.3767 20.8267 0
142 1 7.82928 7.39607 0
143 1 24.2917 1.39455 0
144 1 0.128379 26.2763 0
145 1 9.26769 15.5377 0
146 1 0.799249 13.7882 0
147 1 2.24324 7.54421 0
148 1 10.9877 25.124 0
149 1 4.1006 1.76095 0
150 1 3.21106 13.3504 0
151 1 9.61327 23.2751 0
152 1 4.66108 16.0868 0
153 1 14.7317 5.27466 0
154 1 13.0309 2.23365 0
155 1 23.71 3.41166 0
156 1 25.3669 4.32611 0
157 1 13.5185 12.4027 0
158 1 19.5787 9.85773 0
159 1 20.8547 13.371 0
160 1 0.981109 3.0921 0
161 1 16.3799 16.6519 0
162 1 23.1849 21.4969 0
163 1 28.0654 18.9247 0
164 1 24.8659 28.0268 0
165 1 11.4857 19.2829 0
166 1 11.9562 11.5637 0
167 1 24.2308 21.6101 0
168 1 18.5499 24.7149 0
169 1 29.837 9.25476 0
170 1 28.7685 23.9869 0
171 1 11.2063 13.1482 0
172 1 27.0814 26.264 0
173 1 16.6632 14.218 0
174 1 14.5555 3.31309 0
175 1 17.0828 17.4228 0
176 1 26.4844 8.99987 0
177 1 22.4243 13.3613 0
178 1 10.5758 16.3692 0
179 1 23.4818 16.5679 0
180 1 2.91692 16.9057 0
181 1 1.73206 18.333 0
182 1 2.15705 8.66699 0
183 1 25.5448 12.9562 0
184 1 24.015 2.39513 0
185 1 18.3039 9.65654 0
186 1 19.5323 24.8623 0
187 1 29.6779 29.7192 0
188 1 21.7507 23.2618 0
189 1 5.50846 23.5921 0
190 1 26.4506 19.1359 0
191 1 15.8889 13.0287 0
192 1 11.0564 4.73518 0
193 1 19.3483 11.9273 0
194 1 22.0456 28.9102 0
ITEM: TIMESTEP
810
ITEM: NUMBER OF ATOMS
194
ITEM: BOX BOUNDS pp pp pp
0.0000000000000000e+00 3.0000000000000000e+01
0.0000000000000000e+00 3.0000000000000000e+01
-5.0000000000000000e-01 5.0000000000000000e-01
ITEM: ATOMS id type x y z
1 1 24.8769 10.1086 0
2 1 25.9978 15.4675 0
3 1 20.9287 0.411227 0
4 1 5.79342 16.8738 0
5 1 2.3728 28.4479 0
6 1 16.0114 7.97603 0
7 1 8.909 27.5262 0
8 1 22.7181 12.4298 0
9 1 15.4478 25.0773 0
10 1 18.9773 3.57477 0
11 1 28.5681 9.97204 0
12 1 8.18926 2.1237 0
13 1 19.2607 29.2166 0
14 1 7.75451 4.22909 0
15 1 22.7189 8.04979 0
16 1 11.4096 6.60447 0
17 1 28.9009 3.23239 0
18 1 25.4046 0.341952 0
19 1 18.1757 25.7029 0
20 1 4.65851 6.5713 0
21 1 13.3409 24.8401 0
22 1 15.9668 9.02709 0
23 1 29.1712 14.2478 0
24 1 29.8509 8.1437 0
25 1 26.1555 7.4137 0
26 1 7.48138 24.8412 0
27 1 4.20161 9.92852 0
28 1 19.4494 4.48695 0
29 1 20.571 1.78148 0
30 1 19.9435 0.95778 0
31 1 6.86355 23.9338 0
32 1 23.7635 25.4473 0
33 1 14.8363 18.5749 0
34 1 0.928838 22.9746 0
35 1 12.7099 5.49077 0
36 1 28.0913 16.9451 0
37 1 27.3327 10.579 0
38 1 15.1829 15.8905 0
39 1 29.4922 24.4569 0
40 1 11.167 2.18272 0
41 1 26.0747 27.349 0
42 1 1.2213 9.89908 0
43 1 7.37453 19.6493 0
44 1 13.3911 0.264399 0
45 1 22.1173 0.220005 0
46 1 6.53861 1.14075 0
47 1 13.9738 20.757 0
48 1 14.2895 28.7389 0
49 1 25.3313 3.2295 0
50 1 3.41631 28.502 0
51 1 22.4128 19.7095 0
52 1 14.9362 21.0458 0
53 1 25.7307 21.2485 0
54 1 20.6353 21.6881 0
55 1 24.569 16.7868 0
56 1 3.23829 3.58256 0
57 1 10.7335 21.2921 0
58 1 10.1321 5.2419 0
59 1 17.658 13.992 0
60 1 28.0121 1.30724 0
61 1 21.5382 14.4683 0
62 1 23.6328 4.69234 0
63 1 28.821 0.703162 0
64 1 11.4463 15.3363 0
65 1 28.7482 22.1074 0
66 1 10.3708 8.58364 0
67 1 19.9376 20.1987 0
68 1 7.43818 21.5745 0
69 1 12.1892 4.68436 0
70 1 7.69171 16.2452 0
71 1 1.4934 3.91599 0
72 1 10.6789 25.822 0
73 1 13.6959 22.1007 0
74 1 20.89 17.2986 0
75 1 8.94355 25.7433 0
76 1 18.4335 4.80871 0
77 1 9.17445 0.545771 0
78 1 1.11321 7.19764 0
79 1 13.8198 17.4425 0
80 1 9.13842 20.167 0
81 1 19.6379 21.4647 0
82 1 19.588 23.3421 0
83 1 7.94196 22.3764 0
84 1 22.2994 11.4579 0
85 1 7.91878 29.9272 0
86 1 21.81 17.3593 0
87 1 16.8235 23.9677 0
88 1 6.59838 18.4802 0
89 1 21.4677 22.4889 0
90 1 13.051 3.15629 0
91 1 5.19527 27.9854 0
92 1 25.7119 14.0514 0
93 1 9.82506 6.32652 0
94 1 25.2375 29.2214 0
95 1 23.827 18.7914 0
96 1 14.7506 25.4663 0
97 1 1.6634 0.301245 0
98 1 4.3096 0.334308 0
99 1 20.381 7.90853 0
100 1 17.9678 19.0452 0
101 1 10.2354 18.5686 0
102 1 16.9655 -0.064665 0
103 1 21.2823 8.2958 0
104 1 4.0441 25.3481 0
105 1 21.4781 18.5545 0
106 1 6.04843 10.0571 0
107 1 18.1293 0.676373 0
108 1 9.9728 11.8331 0
109 1 15.516 19.762 0
110 1 27.5899 7.43911 0
111 1 9.46766 4.30415 0
112 1 9.82359 3.2363 0
113 1 16.4936 20.6502 0
114 1 5.59887 7.96658 0
115 1 23.968 15.4235 0
116 1 6.51962 28.8013 0
117 1 25.0332 21.8572 0
118 1 11.8311 9.00206 0
119 1 27.2566 4.32417 0
120 1 12.1628 8.10764 0
121 1 25.0869 19.2884 0
122 1 8.14025 20.7606 0
123 1 18.4309 23.5129 0
124 1 10.4939 14.9354 0
125 1 26.5454 13.6186 0
126 1 2.87355 11.8585 0
127 1 5.19696 3.07766 0
128 1 2.18423 17.164 0
129 1 6.85529 14.4564 0
130 1 8.80248 12.5067 0
131 1 23.0238 27.4139 0
132 1 0.147145 22.2455 0
133 1 2.90854 26.3424 0
134 1 12.8032 1.02043 0
135 1 11.3702 0.65977 0
136 1 21.6277 20.5899 0
137 1 26.4505 14.7105 0
138 1 0.408904 15.8948 0
139 1 8.23316 18.7524 0
140 1 0.699721 6.19014 0
141 1 27.2173 21.0912 0
142 1 7.73437 7.24963 0
143 1 23.71 1.246 0
144 1 0.0924097 26.1045 0
145 1 9.68576 14.9909 0
146 1 0.72945 13.6998 0
147 1 2.40265 7.61378 0
148 1 10.9974 24.8225 0
149 1 4.30607 1.44438 0
150 1 2.98223 13.436 0
151 1 9.70937 22.797 0
152 1 4.76142 16.312 0
153 1 15.193 5.3907 0
154 1 12.8707 2.20544 0
155 1 23.5369 3.8578 0
156 1 25.4325 4.51732 0
157 1 13.613 12.3811 0
158 1 19.4661 9.67349 0
159 1 20.7661 13.5963 0
160 1 0.445826 2.93756 0
161 1 16.5476 16.5978 0
162 1 23.4045 21.1424 0
163 1 28.0792 18.6376 0
164 1 24.625 28.2208 0
165 1 11.383 18.9498 0
166 1 12.193 11.0608 0
167 1 24.356 21.2951 0
168 1 18.5207 24.7699 0
169 1 29.9873 9.50541 0
170 1 28.6721 23.9496 0
171 1 11.0977 13.2252 0
172 1 27.2841 26.397 0
173 1 16.0347 14.0384 0
174 1 14.5352 3.60123 0
175 1 17.3285 17.4061 0
176 1 26.2534 8.83758 0
177 1 22.0774 13.519 0
178 1 10.3074 16.5045 0
179 1 23.511 16.8031 0
180 1 3.17618 17.0509 0
181 1 1.91107 18.5867 0
182 1 2.47171 8.52198 0
183 1 25.3828 12.5797 0
184 1 23.9749 2.17237 0
185 1 17.9094 9.42086 0
186 1 19.7201 25.1084 0
187 1 29.5876 29.6999 0
188 1 21.9445 23.5796 0
189 1 5.30674 23.7963 0
190 1 26.0641 18.8377 0
191 1 15.8182 13.0272 0
192 1 10.9405 4.69256 0
193 1 19.5304 11.9168 0
194 1 22.3786 29.3165 0
ITEM: TIMESTEP
825
ITEM: NUMBER OF ATOMS
194
ITEM: BOX BOUNDS pp pp pp
0.0000000000000000e+00 3.0000000000000000e+01
0.0000000000000000e+00 3.0000000000000000e+01
-5.0000000000000000e-01 5.0000000000000000e-01
ITEM: ATOMS id type x y z
1 1 24.8058 10.1492 0
2 1 25.9737 15.4398 0
3 1 20.5038 0.714289 0
4 1 5.69224 16.4803 0
5 1 2.28974 28.4295 0
6 1 16.0682 7.75012 0
7 1 9.1207 27.4847 0
8 1 22.792 12.712 0
9 1 15.6313 25.0223 0
10 1 18.9964 3.46656 0
11 1 28.2138 10.1757 0
12 1 7.97496 2.2638 0
13 1 19.2182 28.9039 0
14 1 7.3562 4.25752 0
15 1 22.5498 7.70236 0
16 1 11.3092 6.52826 0
17 1 29.0645 3.40116 0
18 1 25.2671 0.113444 0
19 1 17.7468 25.4875 0
20 1 4.62392 6.50977 0
21 1 13.1716 24.8434 0
22 1 16.0834 8.72975 0
23 1 29.2636 14.098 0
24 1 30.0444 7.74499 0
25 1 26.3098 7.30234 0
26 1 7.66152 24.7615 0
27 1 4.67332 10.2923 0
28 1 19.8069 4.53275 0
29 1 20.4503 1.96346 0
30 1 19.6112 0.952017 0
31 1 6.92106 24.0548 0
32 1 23.7667 25.8594 0
33 1 14.5638 19.1229 0
34 1 0.869456 22.8372 0
35 1 12.7122 5.69156 0
36 1 27.9677 17.2134 0
37 1 27.4088 10.7207 0
38 1 15.3128 15.6324 0
39 1 29.6431 24.2109 0
40 1 11.2189 2.23136 0
41 1 25.985 27.3541 0
42 1 1.65133 10.374 0
43 1 7.45663 19.4878 0
44 1 13.1129 0.290703 0
45 1 22.0564 0.293098 0
46 1 6.41834 1.13111 0
47 1 13.9722 20.1754 0
48 1 14.2968 28.9983 0
49 1 25.3237 3.37376 0
50 1 3.72841 28.6694 0
51 1 22.091 19.8834 0
52 1 14.8034 21.2403 0
53 1 26.0527 21.1367 0
54 1 20.7981 21.6603 0
55 1 24.922 16.4366 0
56 1 3.07926 3.6651 0
57 1 10.8561 21.132 0
58 1 9.89342 5.45444 0
59 1 17.1917 13.7821 0
60 1 28.5294 1.38293 0
61 1 21.8837 14.6883 0
62 1 23.6552 5.02813 0
63 1 29.1285 0.334932 0
64 1 11.3862 15.7183 0
65 1 28.8235 22.0733 0
66 1 10.6372 8.29974 0
67 1 20.0894 20.2798 0
68 1 7.80891 21.7289 0
69 1 12.5934 4.53606 0
70 1 7.43499 16.1115 0
71 1 1.63287 3.58037 0
72 1 10.8794 25.8967 0
73 1 13.7172 22.222 0
74 1 20.7465 17.0338 0
75 1 9.21031 25.4983 0
76 1 18.1017 4.50271 0
77 1 9.51754 0.346228 0
78 1 0.823789 7.54536 0
79 1 13.5875 16.8915 0
80 1 8.97548 20.4526 0
81 1 19.832 21.8939 0
82 1 20.3062 23.5532 0
83 1 8.05059 22.9752 0
84 1 22.7993 11.4967 0
85 1 8.03347 0.254796 0
86 1 21.9552 17.61 0
87 1 16.6616 24.4635 0
88 1 6.02591 18.657 0
89 1 21.8675 22.3305 0
90 1 13.0695 3.22949 0
91 1 5.19498 28.3293 0
92 1 25.3522 13.6843 0
93 1 9.52388 6.23764 0
94 1 25.3859 28.7675 0
95 1 23.6926 19.0657 0
96 1 14.5374 25.8131 0
97 1 1.46953 0.658576 0
98 1 4.70534 0.43809 0
99 1 19.7826 8.22137 0
100 1 18.1345 19.1578 0
101 1 10.1536 18.727 0
102 1 17.0212 29.3548 0
103 1 21.2142 8.47263 0
104 1 4.1772 25.4276 0
105 1 21.606 18.5082 0
106 1 6.38545 10.2102 0
107 1 18.2163 0.723593 0
108 1 10.0684 12.2818 0
109 1 15.6197 20.0806 0
110 1 27.932 7.49866 0
111 1 9.21459 4.50783 0
112 1 9.76972 3.28106 0
113 1 16.4775 20.3636 0
114 1 5.51828 7.58336 0
115 1 24.0109 15.4704 0
116 1 6.38829 28.5906 0
117 1 25.2175 21.8593 0
118 1 11.6956 9.1109 0
119 1 27.3189 3.9944 0
120 1 11.9905 7.98706 0
121 1 24.4892 19.2921 0
122 1 8.1294 20.6524 0
123 1 18.3653 23.2866 0
124 1 10.9038 14.8015 0
125 1 26.6985 13.5973 0
126 1 2.57218 11.9018 0
127 1 5.40983 2.90239 0
128 1 2.47347 17.4531 0
129 1 6.85835 14.5593 0
130 1 8.73143 12.1779 0
131 1 23.1045 27.4246 0
132 1 29.7021 21.767 0
133 1 3.66171 26.9779 0
134 1 12.3769 1.15841 0
135 1 11.3853 0.724718 0
136 1 21.6576 20.6464 0
137 1 26.2434 14.3749 0
138 1 0.696626 16.0479 0
139 1 8.26929 19.1705 0
140 1 0.391695 6.16877 0
141 1 27.0557 21.3563 0
142 1 7.63945 7.10318 0
143 1 23.1145 0.976743 0
144 1 0.0561188 25.9318 0
145 1 9.62248 14.4743 0
146 1 0.65837 13.6121 0
147 1 2.54708 7.30594 0
148 1 11.0653 24.4082 0
149 1 4.47641 1.45139 0
150 1 2.75309 13.5197 0
151 1 9.80525 22.3182 0
152 1 4.80773 16.529 0
153 1 15.6541 5.50625 0
154 1 12.6945 2.05975 0
155 1 23.3009 3.85659 0
156 1 25.4973 4.70334 0
157 1 13.7072 12.3591 0
158 1 19.3519 9.48838 0
159 1 20.6792 13.8153 0
160 1 -0.089372 2.786 0
161 1 16.7123 16.5417 0
162 1 23.2158 20.7191 0
163 1 28.0926 18.349 0
164 1 24.3818 28.4135 0
165 1 11.2762 18.6154 0
166 1 12.4299 10.558 0
167 1 24.6456 20.8345 0
168 1 18.5164 24.7785 0
169 1 0.150977 9.81961 0
170 1 28.5004 23.8568 0
171 1 10.9881 13.3027 0
172 1 27.485 26.5314 0
173 1 15.4071 13.9088 0
174 1 14.5126 3.88914 0
175 1 17.5754 17.3912 0
176 1 26.0223 8.67237 0
177 1 21.7319 13.6568 0
178 1 10.0396 16.6358 0
179 1 23.4853 17.02 0
180 1 3.48258 17.1905 0
181 1 2.09093 18.8369 0
182 1 2.79704 8.75335 0
183 1 25.2233 12.2072 0
184 1 23.9491 2.0714 0
185 1 17.5164 9.18531 0
186 1 19.904 25.3531 0
187 1 29.5354 29.6205 0
188 1 22.1445 23.9038 0
189 1 5.10702 24.001 0
190 1 25.8232 18.4907 0
191 1 15.7485 12.9762 0
192 1 10.8197 4.57482 0
193 1 19.7127 11.9063 0
194 1 22.7999 29.532 0
ITEM: TIMESTEP
840
ITEM: NUMBER OF ATOMS
194
ITEM: BOX BOUNDS pp pp pp
0.0000000000000000e+00 3.0000000000000000e+01
0.0000000000000000e+00 3.0000000000000000e+01
-5.0000000000000000e-01 5.0000000000000000e-01
ITEM: ATOMS id type x y z
1 1 24.7349 10.1898 0
2 1 25.9109 15.5006 0
3 1 20.2135 0.989096 0
4 1 5.81755 16.0938 0
5 1 2.20974 28.4115 0
6 1 16.1242 7.45994 0
7 1 9.33251 27.4427 0
8 1 22.8636 12.9941 0
9 1 15.7314 24.9729 0
10 1 19.0153 3.36389 0
11 1 28.0084 10.2592 0
12 1 7.76049 2.40358 0
13 1 19.1755 28.592 0
14 1 6.95855 4.28566 0
15 1 22.3787 7.35593 0
16 1 11.2092 6.45231 0
17 1 29.1986 3.60867 0
18 1 25.1292 29.8804 0
19 1 17.3069 25.3018 0
20 1 4.59156 6.45112 0
21 1 13.0032 24.8476 0
22 1 16.2034 8.49758 0
23 1 29.3589 13.9474 0
24 1 29.6879 7.45391 0
25 1 26.465 7.19472 0
26 1 7.86392 24.7004 0
27 1 5.1461 10.6559 0
28 1 20.1607 4.57595 0
29 1 20.3274 2.13777 0
30 1 19.1497 0.981816 0
31 1 6.95841 24.1549 0
32 1 23.7693 26.2729 0
33 1 14.6361 19.2922 0
34 1 0.807716 22.6988 0
35 1 12.7171 5.90104 0
36 1 27.8109 17.3587 0
37 1 27.3365 10.9823 0
38 1 15.4437 15.3742 0
39 1 29.796 23.9664 0
40 1 11.2748 2.27643 0
41 1 25.895 27.361 0
42 1 2.08036 10.8493 0
43 1 7.3219 19.4112 0
44 1 12.8379 0.312637 0
45 1 21.84 0.42542 0
46 1 6.29776 1.12149 0
47 1 13.6302 19.9771 0
48 1 14.3035 29.2585 0
49 1 25.3161 3.52236 0
50 1 4.04065 28.8345 0
51 1 21.8885 19.8427 0
52 1 14.6706 21.4318 0
53 1 26.4096 20.841 0
54 1 21.0227 21.6274 0
55 1 25.2679 16.0856 0
56 1 2.91716 3.74725 0
57 1 10.977 20.9731 0
58 1 9.77853 5.39184 0
59 1 16.723 13.5714 0
60 1 29.0479 1.45799 0
61 1 22.2255 14.9295 0
62 1 23.694 5.45067 0
63 1 29.1868 0.389397 0
64 1 11.3474 16.1259 0
65 1 28.757 22.1149 0
66 1 10.9078 8.01758 0
67 1 20.244 20.3646 0
68 1 8.17849 21.882 0
69 1 12.9937 4.37637 0
70 1 7.17664 15.9765 0
71 1 1.77482 3.24472 0
72 1 11.0791 25.9686 0
73 1 13.7408 22.3407 0
74 1 20.6019 16.7707 0
75 1 9.47731 25.2533 0
76 1 17.7742 4.19352 0
77 1 9.85855 0.146627 0
78 1 1.08476 7.7814 0
79 1 13.3554 16.3405 0
80 1 9.06021 20.6744 0
81 1 19.9682 22.3292 0
82 1 21.0241 23.7636 0
83 1 8.15923 23.5769 0
84 1 23.299 11.5384 0
85 1 8.15004 0.583288 0
86 1 22.1574 17.7386 0
87 1 16.6167 24.9252 0
88 1 5.45486 18.8344 0
89 1 22.2626 22.1699 0
90 1 13.0877 3.30571 0
91 1 5.19484 28.6746 0
92 1 24.9896 13.3144 0
93 1 9.10145 6.41948 0
94 1 25.5428 28.3206 0
95 1 23.1132 19.2224 0
96 1 14.2827 26.1833 0
97 1 1.27541 1.01568 0
98 1 5.15217 0.150542 0
99 1 19.1873 8.50723 0
100 1 18.3008 19.27 0
101 1 10.0731 18.8852 0
102 1 17.0778 28.775 0
103 1 21.1456 8.64825 0
104 1 4.31037 25.5074 0
105 1 21.6812 18.5856 0
106 1 6.72132 10.3634 0
107 1 18.3012 0.769303 0
108 1 10.1611 12.7323 0
109 1 15.5356 20.3577 0
110 1 28.2728 7.55816 0
111 1 8.96543 4.71017 0
112 1 9.71544 3.33039 0
113 1 16.643 20.1189 0
114 1 5.4355 7.1973 0
115 1 24.0568 15.5218 0
116 1 6.25365 28.379 0
117 1 25.2764 21.9992 0
118 1 11.5561 9.22234 0
119 1 27.3811 3.6645 0
120 1 11.8185 7.86122 0
121 1 24.3372 19.4167 0
122 1 7.8681 20.5995 0
123 1 18.3008 23.0632 0
124 1 11.3306 14.6412 0
125 1 26.938 13.4318 0
126 1 2.27039 11.9453 0
127 1 5.62213 2.72578 0
128 1 2.73784 17.7506 0
129 1 6.86181 14.664 0
130 1 8.66449 11.8493 0
131 1 23.1869 27.4354 0
132 1 29.4 21.2153 0
133 1 4.41562 27.6142 0
134 1 12.0011 1.26686 0
135 1 11.3024 0.731264 0
136 1 21.5709 20.9165 0
137 1 25.9917 14.0933 0
138 1 0.984426 16.2008 0
139 1 8.52516 19.5125 0
140 1 0.0843644 6.15212 0
141 1 26.9996 21.6828 0
142 1 7.54466 6.95663 0
143 1 22.6123 0.751159 0
144 1 0.0196109 25.7582 0
145 1 9.52063 13.9563 0
146 1 0.584847 13.5253 0
147 1 2.69041 6.99839 0
148 1 11.1328 23.9966 0
149 1 4.59753 1.85028 0
150 1 2.52348 13.6018 0
151 1 9.90126 21.8375 0
152 1 4.62642 16.74 0
153 1 16.115 5.62162 0
154 1 12.5587 2.01095 0
155 1 23.0498 3.76785 0
156 1 25.5612 4.88476 0
157 1 13.8017 12.3372 0
158 1 19.2361 9.33046 0
159 1 20.5561 14.0449 0
160 1 29.4043 2.59522 0
161 1 16.8793 16.4883 0
162 1 23.0252 20.2923 0
163 1 28.139 18.1832 0
164 1 24.1297 28.6007 0
165 1 11.1674 18.2812 0
166 1 12.6661 10.0538 0
167 1 24.9177 20.3556 0
168 1 18.5332 24.7593 0
169 1 0.315912 10.134 0
170 1 28.3277 23.7617 0
171 1 10.8764 13.3817 0
172 1 27.6848 26.6664 0
173 1 14.7683 13.8448 0
174 1 14.4882 4.17675 0
175 1 17.8191 17.3735 0
176 1 25.7918 8.50398 0
177 1 21.4293 13.7597 0
178 1 9.77318 16.7659 0
179 1 23.4607 17.2358 0
180 1 3.8151 17.3238 0
181 1 2.27185 19.0837 0
182 1 3.12184 8.98469 0
183 1 25.0641 11.8376 0
184 1 23.9223 1.97041 0
185 1 17.1215 8.94878 0
186 1 20.0852 25.5962 0
187 1 29.7321 29.1201 0
188 1 22.3431 24.2258 0
189 1 4.90748 24.2069 0
190 1 25.5801 18.1448 0
191 1 15.6919 12.8613 0
192 1 10.6954 4.45881 0
193 1 19.8952 11.896 0
194 1 23.2832 29.6454 0
ITEM: TIMESTEP
855
ITEM: NUMBER OF ATOMS
194
ITEM: BOX BOUNDS pp pp pp
0.0000000000000000e+00 3.0000000000000000e+01
0.0000000000000000e+00 3.0000000000000000e+01
-5.0000000000000000e-01 5.0000000000000000e-01
ITEM: ATOMS id type x y z
1 1 24.6643 10.232 0
2 1 26.1809 15.2588 0
3 1 19.9734 1.26163 0
4 1 5.9516 15.7058 0
5 1 2.13058 28.3936 0
6 1 16.179 7.14023 0
7 1 9.54447 27.4003 0
8 1 22.9346 13.2748 0
9 1 15.3503 24.9871 0
10 1 19.0338 3.26315 0
11 1 27.935 10.2244 0
12 1 7.54559 2.54284 0
13 1 19.1325 28.2804 0
14 1 6.56117 4.31328 0
15 1 22.2071 7.01002 0
16 1 11.1102 6.37876 0
17 1 29.3078 3.86151 0
18 1 24.9896 29.6443 0
19 1 17.6131 25.5021 0
20 1 4.54608 6.38454 0
21 1 12.8349 24.8521 0
22 1 16.1586 8.18769 0
23 1 29.4585 13.7952 0
24 1 29.2843 7.15738 0
25 1 26.6196 7.08972 0
26 1 8.01637 24.8548 0
27 1 5.6206 11.0192 0
28 1 20.5134 4.61789 0
29 1 20.2024 2.30915 0
30 1 19.0573 1.13613 0
31 1 6.98589 24.244 0
32 1 23.7731 26.6856 0
33 1 15.0546 19.0966 0
34 1 0.744356 22.5614 0
35 1 12.7206 6.10884 0
36 1 27.543 17.1598 0
37 1 27.1324 11.3624 0
38 1 15.5748 15.1151 0
39 1 29.9469 23.7206 0
40 1 11.3368 2.3173 0
41 1 25.8759 27.1464 0
42 1 2.52372 11.2618 0
43 1 7.15976 19.3458 0
44 1 12.5583 0.339529 0
45 1 21.1638 0.345788 0
46 1 6.17519 1.11158 0
47 1 12.9454 20.1479 0
48 1 14.3096 29.5191 0
49 1 25.3091 3.67471 0
50 1 4.33395 28.997 0
51 1 21.7069 19.7617 0
52 1 14.5365 21.6224 0
53 1 26.6662 20.4728 0
54 1 21.0455 21.867 0
55 1 25.2764 16.0313 0
56 1 2.75044 3.8273 0
57 1 11.0942 20.8163 0
58 1 9.68468 5.32019 0
59 1 16.259 13.3662 0
60 1 29.57 1.5267 0
61 1 22.5656 15.1678 0
62 1 23.7328 5.87203 0
63 1 29.2388 0.450639 0
64 1 11.3077 16.5319 0
65 1 28.6348 22.1973 0
66 1 10.882 7.77964 0
67 1 20.4039 20.4529 0
68 1 8.55005 22.0303 0
69 1 13.3998 4.24957 0
70 1 6.91534 15.8381 0
71 1 1.92123 2.91095 0
72 1 11.2781 26.0396 0
73 1 13.7678 22.456 0
74 1 20.4584 16.5083 0
75 1 9.74409 25.0082 0
76 1 17.4488 3.88296 0
77 1 10.2001 -0.0522151 0
78 1 1.41108 8.00955 0
79 1 13.1231 15.7894 0
80 1 9.16581 20.8915 0
81 1 20.1061 22.7631 0
82 1 21.7437 23.9737 0
83 1 8.32868 23.9733 0
84 1 23.7999 11.5825 0
85 1 8.26699 0.912374 0
86 1 22.4188 17.7544 0
87 1 16.3104 24.9359 0
88 1 4.88407 19.0116 0
89 1 22.6522 22.0052 0
90 1 13.1017 3.34794 0
91 1 5.22224 29.0568 0
92 1 24.6314 12.9449 0
93 1 8.671 6.61395 0
94 1 25.6256 28.0972 0
95 1 22.4323 19.1707 0
96 1 14.0282 26.5525 0
97 1 1.08075 1.37293 0
98 1 5.60067 -0.13494 0
99 1 18.5657 8.39005 0
100 1 18.4666 19.3821 0
101 1 9.99508 19.0421 0
102 1 17.1348 28.1953 0
103 1 21.0768 8.82329 0
104 1 4.44486 25.5844 0
105 1 21.6991 18.7765 0
106 1 7.05556 10.5169 0
107 1 17.9697 0.695527 0
108 1 10.1129 13.0373 0
109 1 15.3925 20.6301 0
110 1 28.5965 7.626 0
111 1 8.70778 4.90412 0
112 1 9.6623 3.38352 0
113 1 16.8624 19.879 0
114 1 5.36565 6.81925 0
115 1 24.1068 15.5757 0
116 1 6.11873 28.1676 0
117 1 25.3372 22.1359 0
118 1 11.4182 9.32874 0
119 1 27.4437 3.33457 0
120 1 11.9435 7.69419 0
121 1 24.2393 19.5477 0
122 1 7.58442 20.5453 0
123 1 18.2371 22.8408 0
124 1 11.7551 14.479 0
125 1 27.1933 13.2459 0
126 1 1.95386 12.0525 0
127 1 5.83218 2.5459 0
128 1 3.00218 18.0506 0
129 1 6.86538 14.7732 0
130 1 8.59873 11.5213 0
131 1 23.27 27.4493 0
132 1 29.1531 20.6244 0
133 1 5.16014 28.2168 0
134 1 11.7935 1.41729 0
135 1 10.9448 0.547838 0
136 1 21.6689 20.9568 0
137 1 25.7191 13.8331 0
138 1 1.27233 16.3539 0
139 1 8.8109 19.8557 0
140 1 29.776 6.14015 0
141 1 27.0402 22.0832 0
142 1 7.45133 6.80957 0
143 1 22.5729 0.733775 0
144 1 -0.0170403 25.5838 0
145 1 9.40084 13.453 0
146 1 0.507594 13.44 0
147 1 2.83354 6.69157 0
148 1 11.2003 23.5858 0
149 1 4.72281 2.25001 0
150 1 2.29315 13.6825 0
151 1 9.99896 21.3534 0
152 1 4.59199 16.8095 0
153 1 16.5758 5.73753 0
154 1 12.5281 2.11298 0
155 1 22.7996 3.67986 0
156 1 25.6242 5.06234 0
157 1 13.8971 12.3162 0
158 1 19.147 9.57552 0
159 1 20.2911 14.32 0
160 1 28.9187 2.37097 0
161 1 17.0493 16.4378 0
162 1 22.8649 20.0546 0
163 1 28.2962 18.3617 0
164 1 23.8788 28.7868 0
165 1 11.0545 17.9484 0
166 1 12.8993 9.54758 0
167 1 25.205 19.8891 0
168 1 18.5464 24.7413 0
169 1 0.481315 10.4485 0
170 1 28.1581 23.6658 0
171 1 10.9247 13.5954 0
172 1 27.8842 26.8015 0
173 1 14.1317 13.7796 0
174 1 14.4599 4.464 0
175 1 18.0592 17.3529 0
176 1 25.5624 8.33338 0
177 1 21.2721 13.819 0
178 1 9.50819 16.896 0
179 1 23.4335 17.4525 0
180 1 3.99374 17.6 0
181 1 2.45405 19.327 0
182 1 3.44629 9.21569 0
183 1 24.9033 11.4692 0
184 1 23.8948 1.86903 0
185 1 16.8933 8.8186 0
186 1 20.2656 25.8385 0
187 1 29.9355 28.6077 0
188 1 22.5396 24.5469 0
189 1 4.70695 24.4159 0
190 1 25.3362 17.7993 0
191 1 15.6278 12.7424 0
192 1 10.5651 4.34463 0
193 1 20.0777 11.8859 0
194 1 23.7651 29.7638 0
ITEM: TIMESTEP
870
ITEM: NUMBER OF ATOMS
194
ITEM: BOX BOUNDS pp pp pp
0.0000000000000000e+00 3.0000000000000000e+01
0.0000000000000000e+00 3.0000000000000000e+01
-5.0000000000000000e-01 5.0000000000000000e-01
ITEM: ATOMS id type x y z
1 1 24.5891 10.2621 0
2 1 26.5487 14.9272 0
3 1 19.9049 1.54521 0
4 1 5.93587 15.2762 0
5 1 2.05139 28.3757 0
6 1 16.2374 6.79497 0
7 1 9.7566 27.3577 0
8 1 23.0059 13.5554 0
9 1 14.8105 25.0075 0
10 1 19.0537 3.16104 0
11 1 27.8602 10.1917 0
12 1 7.32933 2.68132 0
13 1 19.0891 27.9688 0
14 1 6.16396 4.34014 0
15 1 22.0357 6.66405 0
16 1 11.0122 6.30933 0
17 1 29.4161 4.11204 0
18 1 24.883 29.3863 0
19 1 18.0116 25.744 0
20 1 4.38185 6.25917 0
21 1 12.6662 24.8571 0
22 1 15.9083 7.75724 0
23 1 29.5458 13.647 0
24 1 29.1043 6.77421 0
25 1 26.7736 6.98592 0
26 1 8.03172 25.4277 0
27 1 6.09735 11.3817 0
28 1 20.8657 4.65935 0
29 1 20.0779 2.49664 0
30 1 18.9215 1.30352 0
31 1 7.01916 24.3336 0
32 1 23.9219 26.8984 0
33 1 15.4739 18.9034 0
34 1 0.678636 22.427 0
35 1 12.7222 6.31746 0
36 1 27.2746 16.9592 0
37 1 26.9296 11.7412 0
38 1 15.706 14.8552 0
39 1 0.0986873 23.472 0
40 1 11.3822 2.41075 0
41 1 25.9357 26.6725 0
42 1 3.00828 11.5683 0
43 1 7.00069 19.2857 0
44 1 12.2745 0.37137 0
45 1 20.4799 0.265672 0
46 1 6.05041 1.10128 0
47 1 12.2603 20.3191 0
48 1 14.3152 29.78 0
49 1 25.303 3.8303 0
50 1 4.36271 29.1235 0
51 1 21.4559 19.7869 0
52 1 14.4079 21.8059 0
53 1 26.9215 20.1057 0
54 1 20.984 22.2202 0
55 1 25.1818 16.0639 0
56 1 2.58025 3.90358 0
57 1 11.2086 20.6608 0
58 1 9.60485 5.25202 0
59 1 15.9716 13.3513 0
60 1 30.0893 1.57367 0
61 1 22.9072 15.4056 0
62 1 23.7713 6.29343 0
63 1 29.2919 0.511068 0
64 1 11.2761 16.9169 0
65 1 28.5113 22.2803 0
66 1 10.6957 7.5602 0
67 1 20.5714 20.5428 0
68 1 8.92458 22.1732 0
69 1 13.7776 4.18569 0
70 1 6.80212 15.7785 0
71 1 2.07048 2.58003 0
72 1 11.4767 26.1099 0
73 1 13.7924 22.5742 0
74 1 20.315 16.2458 0
75 1 10.01 24.7626 0
76 1 17.1245 3.57217 0
77 1 10.3663 29.545 0
78 1 1.73756 8.23727 0
79 1 12.8899 15.2374 0
80 1 9.1498 21.0935 0
81 1 20.2475 23.1936 0
82 1 22.3666 24.0858 0
83 1 8.63111 23.9507 0
84 1 24.1677 11.6868 0
85 1 8.38355 1.24217 0
86 1 22.5991 17.7925 0
87 1 16.0742 24.8964 0
88 1 4.31204 19.1869 0
89 1 23.0377 21.8376 0
90 1 13.0894 3.29769 0
91 1 5.24952 29.4642 0
92 1 24.2751 12.5758 0
93 1 8.24846 6.80691 0
94 1 25.6282 28.1345 0
95 1 22.41 19.1292 0
96 1 13.7737 26.9212 0
97 1 0.894964 1.73243 0
98 1 6.34547 29.9906 0
99 1 17.9369 8.23973 0
100 1 18.6311 19.4944 0
101 1 9.91622 19.1998 0
102 1 17.1922 27.6155 0
103 1 21.0078 8.9982 0
104 1 4.58024 25.6592 0
105 1 21.0634 18.5945 0
106 1 7.38846 10.6718 0
107 1 17.5094 0.581864 0
108 1 10.2635 13.0311 0
109 1 15.2471 20.9037 0
110 1 28.632 7.90176 0
111 1 8.43968 5.09276 0
112 1 9.61204 3.44096 0
113 1 17.081 19.6392 0
114 1 5.41367 6.50019 0
115 1 24.1596 15.6312 0
116 1 6.42177 27.8338 0
117 1 25.3994 22.272 0
118 1 11.2827 9.43282 0
119 1 27.5076 3.00407 0
120 1 12.2295 7.50545 0
121 1 24.1112 19.6631 0
122 1 7.30447 20.4856 0
123 1 18.1741 22.619 0
124 1 12.1775 14.3146 0
125 1 27.4465 13.0603 0
126 1 1.59576 12.2672 0
127 1 6.04122 2.3627 0
128 1 3.23131 18.3692 0
129 1 6.86966 14.8461 0
130 1 8.53238 11.1932 0
131 1 23.2098 27.6663 0
132 1 28.9053 20.0352 0
133 1 5.4365 28.5454 0
134 1 11.565 1.45983 0
135 1 10.7595 0.565661 0
136 1 21.8493 20.8795 0
137 1 25.4462 13.5722 0
138 1 1.56031 16.507 0
139 1 9.09106 20.1769 0
140 1 29.5322 6.00681 0
141 1 27.0813 22.4825 0
142 1 7.35111 6.66129 0
143 1 22.5418 0.717719 0
144 1 29.9462 25.4088 0
145 1 8.93512 13.1486 0
146 1 0.443741 13.3505 0
147 1 2.9775 6.38493 0
148 1 11.2678 23.1756 0
149 1 4.85186 2.65025 0
150 1 2.0617 13.7617 0
151 1 10.2203 20.9083 0
152 1 4.7085 16.7235 0
153 1 17.0356 5.8561 0
154 1 12.5445 2.27272 0
155 1 22.5495 3.59179 0
156 1 25.6862 5.23679 0
157 1 13.9939 12.2981 0
158 1 19.0639 9.85407 0
159 1 20.0052 14.6036 0
160 1 28.4262 2.17046 0
161 1 17.2222 16.39 0
162 1 22.7691 20.0774 0
163 1 28.4539 18.542 0
164 1 23.6308 28.9274 0
165 1 10.9307 17.6377 0
166 1 13.1299 9.04045 0
167 1 25.5203 19.4392 0
168 1 18.5562 24.7257 0
169 1 0.64707 10.7633 0
170 1 27.9899 23.5673 0
171 1 11.1228 13.9241 0
172 1 28.0833 26.9367 0
173 1 13.4959 13.7119 0
174 1 14.4837 4.77707 0
175 1 18.2963 17.3297 0
176 1 25.3338 8.16179 0
177 1 21.1374 13.87 0
178 1 9.2445 17.0265 0
179 1 23.4866 17.6513 0
180 1 4.05716 18.0182 0
181 1 2.63803 19.5666 0
182 1 3.77055 9.44676 0
183 1 24.8801 11.0553 0
184 1 23.8666 1.76699 0
185 1 16.8697 8.83118 0
186 1 20.4457 26.0805 0
187 1 0.138933 28.0959 0
188 1 22.8326 24.9653 0
189 1 4.50571 24.627 0
190 1 25.0917 17.4531 0
191 1 15.3847 12.4344 0
192 1 10.4281 4.23096 0
193 1 20.2604 11.876 0
194 1 24.2092 29.9468 0
ITEM: TIMESTEP
885
ITEM: NUMBER OF ATOMS
194
ITEM: BOX BOUNDS pp pp pp
0.0000000000000000e+00 3.0000000000000000e+01
0.0000000000000000e+00 3.0000000000000000e+01
-5.0000000000000000e-01 5.0000000000000000e-01
ITEM: ATOMS id type x y z
1 1 24.3716 9.95763 0
2 1 26.915 14.5954 0
3 1 19.9167 1.76219 0
4 1 5.77467 14.8065 0
5 1 1.97179 28.3578 0
6 1 16.3083 6.41542 0
7 1 9.96899 27.3152 0
8 1 23.0782 13.8357 0
9 1 14.2715 25.0278 0
10 1 19.0715 3.0579 0
11 1 27.7849 10.1597 0
12 1 7.10961 2.81824 0
13 1 19.0452 27.6568 0
14 1 5.76675 4.3662 0
15 1 21.8651 6.31779 0
16 1 10.9142 6.24472 0
17 1 29.5241 4.36322 0
18 1 24.9569 28.9925 0
19 1 18.4111 25.9829 0
20 1 4.17567 6.11979 0
21 1 12.4969 24.8629 0
22 1 15.6509 7.35922 0
23 1 29.5255 13.5341 0
24 1 28.7492 6.73684 0
25 1 26.9273 6.88241 0
26 1 8.04582 25.9974 0
27 1 6.57668 11.7428 0
28 1 21.2184 4.70044 0
29 1 19.9679 2.76611 0
30 1 18.6927 1.45236 0
31 1 7.05597 24.425 0
32 1 24.1472 27.0149 0
33 1 15.894 18.711 0
34 1 0.611879 22.2935 0
35 1 12.7267 6.51219 0
36 1 27.0061 16.7588 0
37 1 26.7285 12.1222 0
38 1 15.8377 14.5928 0
39 1 0.250605 23.2228 0
40 1 11.4109 2.58525 0
41 1 25.9948 26.2009 0
42 1 3.49144 11.8753 0
43 1 6.84311 19.2309 0
44 1 11.9856 0.40829 0
45 1 19.7944 0.189241 0
46 1 5.92621 1.09159 0
47 1 12.0419 20.3587 0
48 1 14.3205 30.041 0
49 1 25.2977 3.98876 0
50 1 4.22428 29.1988 0
51 1 21.2002 19.8272 0
52 1 14.3248 21.931 0
53 1 27.1756 19.7378 0
54 1 20.9208 22.5745 0
55 1 25.0942 16.1018 0
56 1 2.40864 3.97672 0
57 1 11.1325 20.6271 0
58 1 9.52606 5.18008 0
59 1 15.736 13.4022 0
60 1 0.0956325 1.4867 0
61 1 23.2499 15.6434 0
62 1 23.8094 6.71499 0
63 1 29.3478 0.576143 0
64 1 11.4917 16.8076 0
65 1 28.3838 22.3676 0
66 1 10.5134 7.33628 0
67 1 20.7388 20.6424 0
68 1 9.30051 22.3324 0
69 1 14.0291 4.04085 0
70 1 6.8077 15.8877 0
71 1 2.21909 2.25063 0
72 1 11.6755 26.1793 0
73 1 13.7747 22.7471 0
74 1 20.1711 15.9816 0
75 1 10.2745 24.5162 0
76 1 16.8006 3.26143 0
77 1 10.4357 29.01 0
78 1 2.06427 8.46489 0
79 1 12.7523 14.884 0
80 1 9.07446 21.4068 0
81 1 20.3917 23.6201 0
82 1 22.911 24.0978 0
83 1 8.93324 23.9296 0
84 1 24.3163 11.4816 0
85 1 8.49946 1.57258 0
86 1 22.5554 17.8768 0
87 1 15.8372 24.8572 0
88 1 3.75795 19.384 0
89 1 23.4209 21.6677 0
90 1 13.075 3.24194 0
91 1 5.30847 29.9534 0
92 1 23.9173 12.6448 0
93 1 8.00004 7.03811 0
94 1 25.629 28.1724 0
95 1 22.5179 19.0996 0
96 1 13.5192 27.2895 0
97 1 1.21978 2.22412 0
98 1 7.20192 0.25126 0
99 1 17.3163 8.07925 0
100 1 18.7939 19.6067 0
101 1 9.83536 19.3622 0
102 1 17.2504 27.0355 0
103 1 20.9385 9.17317 0
104 1 4.71951 25.7586 0
105 1 20.3039 18.3447 0
106 1 7.67552 10.8204 0
107 1 17.0512 0.469164 0
108 1 10.4469 13.0134 0
109 1 15.0986 21.1802 0
110 1 28.6422 8.20027 0
111 1 8.17401 5.28258 0
112 1 9.55771 3.49581 0
113 1 17.3004 19.3991 0
114 1 5.50088 6.19525 0
115 1 24.2052 15.6838 0
116 1 6.93484 27.4287 0
117 1 25.4627 22.4083 0
118 1 11.1478 9.53604 0
119 1 27.5559 2.69757 0
120 1 12.5085 7.33087 0
121 1 23.9809 19.7787 0
122 1 7.02479 20.4208 0
123 1 18.1113 22.3975 0
124 1 12.3513 14.0737 0
125 1 27.6978 12.8722 0
126 1 1.23746 12.4838 0
127 1 6.24981 2.17705 0
128 1 3.25815 18.7453 0
129 1 6.90009 14.7908 0
130 1 8.5094 10.8734 0
131 1 23.0751 27.9842 0
132 1 28.6596 19.4698 0
133 1 5.52619 28.7846 0
134 1 11.3614 1.41774 0
135 1 10.6745 0.71689 0
136 1 22.0238 20.8008 0
137 1 25.1722 13.3104 0
138 1 1.84832 16.6602 0
139 1 9.36747 20.3565 0
140 1 29.4882 5.50384 0
141 1 27.124 22.8812 0
142 1 7.07694 6.47282 0
143 1 22.5121 0.701703 0
144 1 29.9094 25.2334 0
145 1 8.43814 12.8574 0
146 1 0.490304 13.2243 0
147 1 3.12472 6.07816 0
148 1 11.3352 22.7657 0
149 1 4.98558 3.04937 0
150 1 1.82825 13.8384 0
151 1 10.2277 20.482 0
152 1 4.82426 16.6394 0
153 1 17.492 5.9785 0
154 1 12.5528 2.42818 0
155 1 22.2991 3.50386 0
156 1 25.7473 5.40868 0
157 1 14.093 12.2826 0
158 1 18.9806 10.132 0
159 1 19.7232 14.8868 0
160 1 27.9513 1.94512 0
161 1 17.3974 16.3442 0
162 1 22.6851 20.1307 0
163 1 28.6082 18.6984 0
164 1 23.3846 29.0545 0
165 1 10.5583 17.8215 0
166 1 13.3593 8.53254 0
167 1 25.835 18.9903 0
168 1 18.5645 24.7131 0
169 1 0.813376 11.0791 0
170 1 27.8237 23.465 0
171 1 11.3214 14.2516 0
172 1 28.2824 27.0719 0
173 1 13.0116 13.5191 0
174 1 14.6369 5.17881 0
175 1 18.531 17.3044 0
176 1 25.1055 7.98986 0
177 1 20.9999 13.923 0
178 1 8.98201 17.1574 0
179 1 23.7637 17.8094 0
180 1 4.30253 18.3592 0
181 1 2.8257 19.8014 0
182 1 4.09463 9.67793 0
183 1 25.2209 10.8503 0
184 1 23.8374 1.66358 0
185 1 16.8364 8.8524 0
186 1 20.6255 26.3225 0
187 1 0.342704 27.5842 0
188 1 23.204 25.4838 0
189 1 4.30062 24.8137 0
190 1 24.8454 17.1041 0
191 1 15.0863 12.0629 0
192 1 10.2921 4.1246 0
193 1 20.443 11.8661 0
194 1 24.4705 0.272934 0
ITEM: TIMESTEP
900
ITEM: NUMBER OF ATOMS
194
ITEM: BOX BOUNDS pp pp pp
0.0000000000000000e+00 3.0000000000000000e+01
0.0000000000000000e+00 3.0000000000000000e+01
-5.0000000000000000e-01 5.0000000000000000e-01
ITEM: ATOMS id type x y z
1 1 24.126 9.6026 0
2 1 27.2811 14.2631 0
3 1 19.9191 1.92218 0
4 1 5.61073 14.3404 0
5 1 1.89161 28.3396 0
6 1 16.3835 6.03318 0
7 1 10.1819 27.2736 0
8 1 23.1523 14.1144 0
9 1 13.7336 25.0478 0
10 1 18.9621 2.98079 0
11 1 27.7095 10.1277 0
12 1 6.89668 2.96251 0
13 1 19.0006 27.3432 0
14 1 5.36875 4.39121 0
15 1 21.6945 5.97025 0
16 1 10.8161 6.18152 0
17 1 29.679 4.32033 0
18 1 24.9596 28.6617 0
19 1 18.8103 26.2197 0
20 1 4.061 5.99375 0
21 1 12.3273 24.8704 0
22 1 15.3947 6.96306 0
23 1 29.4465 13.4397 0
24 1 28.392 6.7041 0
25 1 27.0816 6.77865 0
26 1 8.06578 26.5614 0
27 1 7.05942 12.1017 0
28 1 21.5725 4.74136 0
29 1 19.9903 3.06189 0
30 1 18.4683 1.60273 0
31 1 7.09376 24.5168 0
32 1 24.3706 27.1334 0
33 1 16.3161 18.5197 0
34 1 0.566294 22.0947 0
35 1 12.8193 6.34737 0
36 1 26.7369 16.5582 0
37 1 26.5308 12.5062 0
38 1 15.9706 14.3308 0
39 1 0.380701 23.0391 0
40 1 11.4413 2.76256 0
41 1 26.0536 25.7299 0
42 1 3.97443 12.1822 0
43 1 6.68629 19.181 0
44 1 11.6903 0.44961 0
45 1 19.1081 0.115792 0
46 1 5.81795 1.1033 0
47 1 12.3211 20.2592 0
48 1 14.3257 0.301925 0
49 1 25.2933 4.1498 0
50 1 4.09017 29.2735 0
51 1 21.0023 19.771 0
52 1 14.2603 22.0178 0
53 1 27.4308 19.3679 0
54 1 20.8559 22.9316 0
55 1 25.1338 16.0981 0
56 1 2.23669 4.04851 0
57 1 11.2648 20.7487 0
58 1 9.44684 5.10388 0
59 1 15.4977 13.45 0
60 1 0.0261777 1.3758 0
61 1 23.4098 15.8873 0
62 1 23.848 7.13717 0
63 1 29.4023 0.640372 0
64 1 11.7321 16.6557 0
65 1 28.251 22.4607 0
66 1 10.3322 7.11055 0
67 1 20.8609 20.8407 0
68 1 9.6947 22.5706 0
69 1 14.2738 3.89094 0
70 1 6.81024 16.0123 0
71 1 2.41008 1.91443 0
72 1 11.8753 26.247 0
73 1 13.7169 22.9775 0
74 1 20.0491 15.7458 0
75 1 10.5367 24.2685 0
76 1 16.4769 2.95068 0
77 1 10.5053 28.4754 0
78 1 2.3911 8.69255 0
79 1 12.8076 14.9556 0
80 1 8.9804 21.6703 0
81 1 20.5376 24.0432 0
82 1 23.4558 24.1122 0
83 1 9.2379 23.9084 0
84 1 24.4719 11.1252 0
85 1 8.61448 1.90301 0
86 1 22.5034 17.9671 0
87 1 15.5981 24.8183 0
88 1 3.74688 19.8638 0
89 1 23.8026 21.4956 0
90 1 13.1176 3.26875 0
91 1 5.35318 0.424162 0
92 1 23.5514 12.8695 0
93 1 7.80689 7.28803 0
94 1 25.704 28.1403 0
95 1 22.6202 19.0443 0
96 1 13.2645 27.6576 0
97 1 1.57917 2.74934 0
98 1 8.0558 0.51406 0
99 1 16.7657 7.79976 0
100 1 18.9548 19.7183 0
101 1 9.72602 19.4719 0
102 1 17.3106 26.4545 0
103 1 20.8691 9.34824 0
104 1 4.86706 25.8819 0
105 1 19.5446 18.0961 0
106 1 7.58867 10.9399 0
107 1 16.5935 0.356777 0
108 1 10.6315 12.9979 0
109 1 14.9717 21.4376 0
110 1 28.6524 8.49585 0
111 1 7.91141 5.47413 0
112 1 9.43269 3.49295 0
113 1 17.5204 19.1582 0
114 1 5.58616 5.8897 0
115 1 24.345 15.6882 0
116 1 7.44119 27.0291 0
117 1 25.527 22.5447 0
118 1 11.0129 9.63902 0
119 1 27.46 2.66693 0
120 1 12.6995 7.51782 0
121 1 23.8449 19.8945 0
122 1 6.74472 20.3512 0
123 1 18.0487 22.1761 0
124 1 11.9375 13.797 0
125 1 27.9453 12.6817 0
126 1 1.05649 12.5088 0
127 1 6.44941 1.98352 0
128 1 2.95993 18.7568 0
129 1 6.93594 14.7169 0
130 1 8.85759 10.5858 0
131 1 22.9394 28.2864 0
132 1 28.4501 19.6204 0
133 1 5.61355 29.0213 0
134 1 11.2321 1.43958 0
135 1 10.5238 0.797597 0
136 1 22.0773 20.8389 0
137 1 24.8954 13.0466 0
138 1 2.13636 16.8134 0
139 1 8.84011 20.4793 0
140 1 29.3981 5.29337 0
141 1 26.912 23.0961 0
142 1 6.74682 6.26291 0
143 1 22.4844 0.685863 0
144 1 29.8726 25.0579 0
145 1 7.94111 12.5653 0
146 1 0.421112 13.2719 0
147 1 3.18446 5.75802 0
148 1 11.4021 22.3557 0
149 1 5.1228 3.44853 0
150 1 1.59092 13.9112 0
151 1 10.362 20.1208 0
152 1 4.94011 16.5559 0
153 1 17.9439 6.10305 0
154 1 12.5031 2.50267 0
155 1 22.0476 3.41721 0
156 1 25.808 5.57853 0
157 1 14.1215 12.2996 0
158 1 18.8975 10.4098 0
159 1 19.4207 15.1407 0
160 1 27.6211 1.44356 0
161 1 17.5747 16.3001 0
162 1 22.7224 20.086 0
163 1 28.7232 18.1395 0
164 1 23.1449 29.1973 0
165 1 10.1595 18.0485 0
166 1 13.5869 8.02225 0
167 1 26.1509 18.5423 0
168 1 18.5723 24.7048 0
169 1 0.980377 11.3981 0
170 1 27.917 23.5403 0
171 1 11.2905 14.7039 0
172 1 28.4818 27.207 0
173 1 13.1512 12.8085 0
174 1 14.793 5.58268 0
175 1 18.7644 17.2779 0
176 1 24.8766 7.81728 0
177 1 20.8609 13.9771 0
178 1 8.72068 17.2889 0
179 1 24.0524 17.964 0
180 1 4.57518 18.6882 0
181 1 2.76845 20.1292 0
182 1 4.41856 9.90919 0
183 1 25.5928 10.6958 0
184 1 23.8081 1.55721 0
185 1 16.7318 8.99104 0
186 1 20.8048 26.5646 0
187 1 0.546892 27.0726 0
188 1 23.5754 26.0006 0
189 1 4.08725 24.9764 0
190 1 24.5572 16.8415 0
191 1 14.8585 11.6635 0
192 1 10.224 4.08083 0
193 1 20.6256 11.8565 0
194 1 24.723 0.605439 0
ITEM: TIMESTEP
915
ITEM: NUMBER OF ATOMS
194
ITEM: BOX BOUNDS pp pp pp
0.0000000000000000e+00 3.0000000000000000e+01
0.0000000000000000e+00 3.0000000000000000e+01
-5.0000000000000000e-01 5.0000000000000000e-01
ITEM: ATOMS id type x y z
1 1 23.8819 9.24964 0
2 1 27.6476 13.9293 0
3 1 19.9164 2.08233 0
4 1 5.45072 13.8756 0
5 1 1.81103 28.321 0
6 1 16.4567 5.6542 0
7 1 10.3835 27.1874 0
8 1 23.2284 14.3895 0
9 1 13.1929 25.0671 0
10 1 18.7827 2.90506 0
11 1 27.6342 10.0952 0
12 1 6.68885 3.11469 0
13 1 18.9419 27.1829 0
14 1 4.98626 4.64037 0
15 1 21.5214 5.62822 0
16 1 10.7289 6.09813 0
17 1 29.9094 3.86274 0
18 1 24.7791 28.4755 0
19 1 19.2217 26.3007 0
20 1 4.15739 5.913 0
21 1 12.1595 24.881 0
22 1 15.1724 6.64609 0
23 1 29.275 13.349 0
24 1 28.0518 6.67107 0
25 1 27.2189 6.67457 0
26 1 8.7957 26.649 0
27 1 6.79665 12.1073 0
28 1 21.93 4.77345 0
29 1 20.0841 3.35208 0
30 1 18.2484 1.75537 0
31 1 7.13184 24.6088 0
32 1 24.5939 27.253 0
33 1 16.7418 18.3303 0
34 1 0.542071 21.8038 0
35 1 12.9257 6.11713 0
36 1 26.4657 16.3574 0
37 1 26.3354 12.8914 0
38 1 16.1238 14.1018 0
39 1 0.489 22.9477 0
40 1 11.4648 2.93799 0
41 1 26.1122 25.2592 0
42 1 4.45747 12.489 0
43 1 6.52944 19.135 0
44 1 11.392 0.488134 0
45 1 18.4213 0.0442762 0
46 1 5.90357 1.43071 0
47 1 12.6043 20.1586 0
48 1 14.3311 0.562891 0
49 1 25.2897 4.31313 0
50 1 3.95935 29.3488 0
51 1 20.8184 19.685 0
52 1 14.0815 22.1939 0
53 1 27.6567 18.98 0
54 1 20.7902 23.2916 0
55 1 25.4645 16.0654 0
56 1 2.06552 4.12463 0
57 1 11.396 20.8758 0
58 1 9.36967 5.02316 0
59 1 15.238 13.4636 0
60 1 0.0288638 1.34885 0
61 1 23.391 16.1533 0
62 1 23.8444 7.54734 0
63 1 29.3846 0.621208 0
64 1 11.9722 16.5033 0
65 1 28.1154 22.5563 0
66 1 10.1398 6.90412 0
67 1 20.9769 21.0703 0
68 1 10.0929 22.8224 0
69 1 14.5147 3.7397 0
70 1 6.81258 16.1322 0
71 1 2.61685 1.57384 0
72 1 12.076 26.3121 0
73 1 13.655 23.2149 0
74 1 20.0964 15.6808 0
75 1 10.7951 24.019 0
76 1 16.1532 2.63991 0
77 1 10.5864 27.9855 0
78 1 2.71805 8.92027 0
79 1 12.8604 15.027 0
80 1 8.88246 21.9194 0
81 1 20.6841 24.4631 0
82 1 24.0007 24.1273 0
83 1 9.54782 23.8849 0
84 1 24.6309 10.7667 0
85 1 8.72884 2.23224 0
86 1 22.4515 18.0445 0
87 1 15.3583 24.7795 0
88 1 4.01056 20.2804 0
89 1 24.1834 21.3208 0
90 1 13.2142 3.36476 0
91 1 5.1456 0.526112 0
92 1 23.1885 13.0985 0
93 1 7.6116 7.53521 0
94 1 25.9596 27.9616 0
95 1 22.7244 18.9811 0
96 1 13.0095 28.0254 0
97 1 1.92165 3.27477 0
98 1 8.91022 0.77944 0
99 1 16.2208 7.50056 0
100 1 19.1146 19.8282 0
101 1 9.50173 19.4325 0
102 1 17.3735 25.8729 0
103 1 20.7994 9.52344 0
104 1 5.01289 26.0038 0
105 1 18.8809 18.0838 0
106 1 7.4791 11.0656 0
107 1 16.1357 0.24451 0
108 1 10.8182 12.9842 0
109 1 14.9629 21.5993 0
110 1 28.6621 8.79096 0
111 1 7.64761 5.66794 0
112 1 9.24667 3.44383 0
113 1 17.7392 18.9158 0
114 1 5.66159 5.57753 0
115 1 24.4559 15.5665 0
116 1 7.23771 27.1057 0
117 1 25.5935 22.6822 0
118 1 10.8779 9.74205 0
119 1 27.3527 2.66507 0
120 1 12.8261 7.75751 0
121 1 23.7251 20.0098 0
122 1 6.46477 20.2776 0
123 1 17.986 21.9548 0
124 1 11.7071 13.3986 0
125 1 28.1903 12.4923 0
126 1 1.08972 12.4635 0
127 1 6.70153 1.83059 0
128 1 2.6422 18.7399 0
129 1 6.96771 14.6464 0
130 1 9.22648 10.2981 0
131 1 22.7769 28.4593 0
132 1 28.2687 19.8362 0
133 1 5.69794 29.2624 0
134 1 11.1904 1.55293 0
135 1 10.2902 0.795469 0
136 1 22.0457 20.9637 0
137 1 24.6152 12.7816 0
138 1 2.42451 16.9669 0
139 1 8.12651 20.6039 0
140 1 29.2319 5.49855 0
141 1 26.5786 23.2317 0
142 1 6.42857 6.05699 0
143 1 22.4592 0.669299 0
144 1 29.8359 24.8822 0
145 1 8.19173 12.6204 0
146 1 0.233603 13.554 0
147 1 3.03579 5.3916 0
148 1 11.4678 21.9439 0
149 1 5.24631 3.62573 0
150 1 1.34838 13.9795 0
151 1 10.7951 19.9063 0
152 1 5.05644 16.4724 0
153 1 18.3933 6.22795 0
154 1 12.4077 2.50693 0
155 1 21.7947 3.33372 0
156 1 25.8685 5.7469 0
157 1 14.1457 12.3618 0
158 1 18.8147 10.6877 0
159 1 18.949 15.2236 0
160 1 27.3028 0.913015 0
161 1 17.7541 16.2573 0
162 1 22.8226 19.9763 0
163 1 28.8374 17.5323 0
164 1 22.9333 29.4706 0
165 1 9.75887 18.2775 0
166 1 13.865 7.52419 0
167 1 26.4686 18.0951 0
168 1 18.5805 24.6992 0
169 1 1.14785 11.5529 0
170 1 28.1322 23.6914 0
171 1 11.0771 15.2765 0
172 1 28.6814 27.3421 0
173 1 13.2109 12.1072 0
174 1 14.9202 5.90496 0
175 1 18.9002 17.0143 0
176 1 24.6896 7.65714 0
177 1 20.7214 14.0319 0
178 1 8.46068 17.4212 0
179 1 24.3403 18.1145 0
180 1 4.84403 19.0203 0
181 1 2.46001 20.545 0
182 1 4.74235 10.1405 0
183 1 25.9603 10.5423 0
184 1 23.7803 1.44656 0
185 1 16.6198 9.14732 0
186 1 20.9834 26.8069 0
187 1 0.751181 26.5613 0
188 1 23.9482 26.5189 0
189 1 3.87561 25.1406 0
190 1 24.1849 16.7167 0
191 1 14.7155 11.2115 0
192 1 10.2142 4.08763 0
193 1 20.8081 11.8469 0
194 1 24.9719 0.940229 0
ITEM: TIMESTEP
930
ITEM: NUMBER OF ATOMS
194
ITEM: BOX BOUNDS pp pp pp
0.0000000000000000e+00 3.0000000000000000e+01
0.0000000000000000e+00 3.0000000000000000e+01
-5.0000000000000000e-01 5.0000000000000000e-01
ITEM: ATOMS id type x y z
1 1 23.6387 8.89564 0
2 1 28.0155 13.592 0
3 1 19.9102 2.24933 0
4 1 5.30298 13.4293 0
5 1 1.73037 28.3021 0
6 1 16.5271 5.27721 0
7 1 10.478 26.6753 0
8 1 23.3055 14.6614 0
9 1 12.7572 25.111 0
10 1 18.6074 2.82417 0
11 1 27.5586 10.0621 0
12 1 6.47842 3.26301 0
13 1 18.8309 27.3464 0
14 1 4.59065 5.0486 0
15 1 21.3131 5.35492 0
16 1 10.6682 5.97608 0
17 1 0.139878 3.40633 0
18 1 24.5921 28.3021 0
19 1 19.685 26.0566 0
20 1 4.26007 5.8358 0
21 1 11.8848 24.8696 0
22 1 15.0203 6.97172 0
23 1 29.0052 13.2478 0
24 1 28.1399 6.63803 0
25 1 26.9274 6.56836 0
26 1 9.60345 26.6898 0
27 1 6.22967 11.9681 0
28 1 22.3226 4.7335 0
29 1 20.1755 3.63632 0
30 1 18.0316 1.91129 0
31 1 7.16998 24.7009 0
32 1 24.9586 27.4968 0
33 1 17.1645 18.1379 0
34 1 0.518964 21.5078 0
35 1 13.0329 5.88974 0
36 1 26.5074 16.2496 0
37 1 26.1406 13.2771 0
38 1 16.286 13.8834 0
39 1 0.596021 22.8617 0
40 1 11.4674 3.12019 0
41 1 26.1706 24.7879 0
42 1 4.92985 12.7775 0
43 1 6.37115 19.0915 0
44 1 11.1046 0.518445 0
45 1 17.7343 29.9739 0
46 1 5.81786 1.67275 0
47 1 12.8833 20.0599 0
48 1 14.3374 0.823674 0
49 1 25.2869 4.47848 0
50 1 3.83044 29.425 0
51 1 20.635 19.6031 0
52 1 13.8728 22.3905 0
53 1 27.8556 18.5702 0
54 1 20.7242 23.6555 0
55 1 25.5039 15.9523 0
56 1 1.92783 4.59093 0
57 1 11.5206 20.7897 0
58 1 9.29617 4.93786 0
59 1 14.9676 13.4646 0
60 1 0.0998005 1.40002 0
61 1 23.1332 16.2678 0
62 1 23.5382 7.90841 0
63 1 29.2984 0.52407 0
64 1 12.2114 16.3481 0
65 1 27.9788 22.6543 0
66 1 9.91992 6.73503 0
67 1 21.0768 21.2988 0
68 1 10.489 23.0722 0
69 1 14.7518 3.58719 0
70 1 6.81455 16.2497 0
71 1 2.82306 1.23432 0
72 1 12.2774 26.3735 0
73 1 13.5922 23.455 0
74 1 20.1577 15.6271 0
75 1 11.0508 23.7706 0
76 1 15.8293 2.32924 0
77 1 10.776 27.9205 0
78 1 3.0451 9.14807 0
79 1 12.9114 15.099 0
80 1 8.78564 22.1682 0
81 1 20.8306 24.8792 0
82 1 24.546 24.1424 0
83 1 9.86304 23.8602 0
84 1 24.7937 10.4066 0
85 1 8.84185 2.55323 0
86 1 22.3784 18.0525 0
87 1 15.1183 24.7407 0
88 1 4.27331 20.6948 0
89 1 24.5625 21.1424 0
90 1 13.3143 3.46226 0
91 1 4.91018 0.584771 0
92 1 22.8286 13.3319 0
93 1 7.41586 7.78117 0
94 1 26.215 27.7801 0
95 1 22.8496 18.9352 0
96 1 12.7541 28.3927 0
97 1 2.23224 3.41064 0
98 1 9.44228 1.12165 0
99 1 15.8714 7.30827 0
100 1 19.2744 19.9365 0
101 1 9.27424 19.4007 0
102 1 17.4384 25.2906 0
103 1 20.7297 9.69887 0
104 1 5.15609 26.1235 0
105 1 18.4688 18.2217 0
106 1 7.36787 11.1964 0
107 1 15.6774 0.132556 0
108 1 10.7321 12.8702 0
109 1 14.9847 21.7384 0
110 1 28.6709 9.08693 0
111 1 7.37951 5.86363 0
112 1 9.06146 3.40123 0
113 1 17.8039 18.8067 0
114 1 5.58598 5.15817 0
115 1 24.5431 15.4369 0
116 1 6.95564 27.2295 0
117 1 25.6294 22.7965 0
118 1 10.7415 9.84547 0
119 1 27.2453 2.66186 0
120 1 12.9122 7.991 0
121 1 23.7875 20.1355 0
122 1 6.1858 20.2017 0
123 1 17.9235 21.7333 0
124 1 11.7499 13.1016 0
125 1 28.4367 12.3075 0
126 1 1.11196 12.7842 0
127 1 7.1539 1.80664 0
128 1 2.32491 18.7236 0
129 1 6.99801 14.5781 0
130 1 9.596 10.0104 0
131 1 22.6044 28.5742 0
132 1 28.1125 20.0713 0
133 1 5.77966 29.5075 0
134 1 11.1515 1.67878 0
135 1 10.3672 0.720362 0
136 1 22.0318 21.0824 0
137 1 24.333 12.5171 0
138 1 2.71272 17.1212 0
139 1 7.41332 20.7296 0
140 1 29.0649 5.70369 0
141 1 26.2786 23.391 0
142 1 6.2757 5.9618 0
143 1 22.4354 0.655867 0
144 1 29.7993 24.7065 0
145 1 8.74863 12.8152 0
146 1 0.142941 13.842 0
147 1 2.88105 5.02218 0
148 1 11.5418 21.7428 0
149 1 5.37518 3.63586 0
150 1 1.10503 14.0445 0
151 1 11.2303 19.6953 0
152 1 5.17363 16.3888 0
153 1 18.8422 6.35278 0
154 1 12.3305 2.49983 0
155 1 21.5404 3.25339 0
156 1 25.9297 5.91456 0
157 1 14.3084 12.4272 0
158 1 18.7322 10.9656 0
159 1 18.4617 15.2976 0
160 1 26.9848 0.383793 0
161 1 17.9379 16.215 0
162 1 22.741 19.9141 0
163 1 28.951 16.9258 0
164 1 22.7334 29.7997 0
165 1 9.35769 18.4966 0
166 1 14.1832 7.02828 0
167 1 26.7883 17.6483 0
168 1 18.5883 24.6956 0
169 1 1.32398 11.3476 0
170 1 28.3455 23.8403 0
171 1 10.8664 15.8498 0
172 1 28.8812 27.4771 0
173 1 13.1345 11.4025 0
174 1 14.7848 5.47831 0
175 1 18.9406 16.468 0
176 1 24.8051 7.54816 0
177 1 20.5813 14.0875 0
178 1 8.20225 17.5546 0
179 1 24.6268 18.2618 0
180 1 5.11319 19.3548 0
181 1 2.15357 20.9595 0
182 1 5.06603 10.372 0
183 1 26.3247 10.3893 0
184 1 23.7549 1.33253 0
185 1 16.5076 9.30198 0
186 1 21.161 27.0489 0
187 1 0.955191 26.0498 0
188 1 24.1851 26.9032 0
189 1 3.66665 25.3069 0
190 1 24.0525 16.7425 0
191 1 14.5714 10.762 0
192 1 10.2026 4.09855 0
193 1 20.9905 11.8373 0
194 1 25.2165 1.27683 0
ITEM: TIMESTEP
945
ITEM: NUMBER OF ATOMS
194
ITEM: BOX BOUNDS pp pp pp
0.0000000000000000e+00 3.0000000000000000e+01
0.0000000000000000e+00 3.0000000000000000e+01
-5.0000000000000000e-01 5.0000000000000000e-01
ITEM: ATOMS id type x y z
1 1 23.4684 8.94756 0
2 1 28.0557 13.3607 0
3 1 19.9015 2.42152 0
4 1 5.60312 13.7761 0
5 1 1.64978 28.2832 0
6 1 16.5963 4.9008 0
7 1 11.0367 26.0588 0
8 1 23.3841 14.9332 0
9 1 12.5579 25.2185 0
10 1 18.4478 2.75766 0
11 1 27.498 10.0239 0
12 1 6.29689 3.3995 0
13 1 18.7206 27.5093 0
14 1 4.32205 4.96997 0
15 1 21.0978 5.09083 0
16 1 10.6173 5.84093 0
17 1 0.370735 2.94961 0
18 1 24.3304 28.2801 0
19 1 20.1488 25.8116 0
20 1 4.19946 6.23091 0
21 1 11.3703 24.7977 0
22 1 15.148 7.03417 0
23 1 29.0691 13.0461 0
24 1 28.2935 6.60642 0
25 1 26.6317 6.50124 0
26 1 9.94219 26.809 0
27 1 5.66801 11.8248 0
28 1 22.7213 4.68231 0
29 1 20.269 3.91586 0
30 1 17.8036 2.05158 0
31 1 7.20805 24.793 0
32 1 25.5397 27.7157 0
33 1 17.5306 17.87 0
34 1 0.497357 21.2158 0
35 1 13.1423 5.66385 0
36 1 26.8588 16.2353 0
37 1 25.946 13.6627 0
38 1 16.4448 13.6638 0
39 1 0.702656 22.7718 0
40 1 11.457 3.30819 0
41 1 26.2331 24.4094 0
42 1 4.9524 12.2741 0
43 1 6.21009 19.0493 0
44 1 11.7483 0.295513 0
45 1 17.0469 29.9041 0
46 1 5.72637 1.91105 0
47 1 13.159 19.9622 0
48 1 14.346 1.08346 0
49 1 25.2849 4.64566 0
50 1 3.70301 29.5029 0
51 1 20.4492 19.5234 0
52 1 13.6685 22.5822 0
53 1 28.0526 18.1599 0
54 1 20.6584 24.0247 0
55 1 25.2887 15.7846 0
56 1 1.75493 5.15069 0
57 1 11.6356 20.3924 0
58 1 9.227 4.84774 0
59 1 14.6992 13.4659 0
60 1 0.171104 1.45215 0
61 1 22.6872 16.2659 0
62 1 23.1443 7.86269 0
63 1 29.2118 0.426481 0
64 1 12.4496 16.1888 0
65 1 27.8428 22.7571 0
66 1 9.68932 6.57731 0
67 1 21.1138 21.5408 0
68 1 10.6957 23.0363 0
69 1 14.9866 3.43391 0
70 1 6.81559 16.3664 0
71 1 3.02968 0.894544 0
72 1 12.4788 26.4295 0
73 1 13.5287 23.6989 0
74 1 20.2154 15.5728 0
75 1 11.5235 23.7713 0
76 1 15.5044 2.01919 0
77 1 10.9721 27.8812 0
78 1 3.37227 9.37593 0
79 1 12.9604 15.174 0
80 1 8.68924 22.4171 0
81 1 20.9754 25.2913 0
82 1 25.0944 24.1565 0
83 1 10.1534 23.8725 0
84 1 24.9584 10.0462 0
85 1 8.88691 2.55672 0
86 1 22.2826 18.0117 0
87 1 14.878 24.7017 0
88 1 4.53718 21.1075 0
89 1 24.9385 20.9602 0
90 1 13.4141 3.55729 0
91 1 4.67795 0.641883 0
92 1 22.4707 13.5682 0
93 1 7.21996 8.02636 0
94 1 26.4696 27.5981 0
95 1 23.0049 18.8801 0
96 1 12.4983 28.7597 0
97 1 2.54222 3.45063 0
98 1 9.32888 1.63091 0
99 1 16.1042 7.41235 0
100 1 19.437 20.043 0
101 1 9.0343 19.5634 0
102 1 17.5067 24.7066 0
103 1 20.6598 9.87461 0
104 1 5.29849 26.2427 0
105 1 18.6169 17.8912 0
106 1 7.25369 11.3297 0
107 1 15.2173 0.0220653 0
108 1 10.4268 12.6833 0
109 1 15.0027 21.8799 0
110 1 28.6774 9.38467 0
111 1 7.12177 6.06026 0
112 1 8.94932 3.67826 0
113 1 17.3663 19.2405 0
114 1 5.49381 4.7033 0
115 1 24.5685 15.275 0
116 1 6.67339 27.3531 0
117 1 25.4922 22.7564 0
118 1 10.7103 9.96011 0
119 1 27.1379 2.6584 0
120 1 13.0003 8.22278 0
121 1 23.8992 20.2695 0
122 1 5.9526 20.162 0
123 1 17.861 21.5117 0
124 1 12.0111 12.8776 0
125 1 28.6788 12.1185 0
126 1 1.13204 13.1104 0
127 1 7.61028 1.78708 0
128 1 2.00797 18.7062 0
129 1 7.02774 14.5107 0
130 1 9.86023 9.71148 0
131 1 22.4326 28.6925 0
132 1 27.9556 20.3041 0
133 1 5.85849 29.7557 0
134 1 11.1119 1.80303 0
135 1 10.1614 0.740528 0
136 1 22.083 21.182 0
137 1 24.0502 12.253 0
138 1 3.0006 17.2769 0
139 1 6.69699 20.8537 0
140 1 28.8978 5.90846 0
141 1 26.1455 23.6122 0
142 1 6.16378 5.91047 0
143 1 22.3316 0.89275 0
144 1 29.7622 24.5303 0
145 1 9.30607 13.0096 0
146 1 -0.0288791 14.1139 0
147 1 2.76452 4.6559 0
148 1 11.6276 21.8688 0
149 1 5.47464 3.65929 0
150 1 0.942804 14.1183 0
151 1 11.6651 19.4686 0
152 1 5.29233 16.305 0
153 1 19.291 6.47758 0
154 1 12.2647 2.48617 0
155 1 21.2829 3.17541 0
156 1 25.9287 6.04066 0
157 1 14.4718 12.4909 0
158 1 18.6499 11.2435 0
159 1 17.9967 15.2947 0
160 1 26.6665 -0.145069 0
161 1 18.059 16.2522 0
162 1 22.6038 19.9091 0
163 1 29.0642 16.3198 0
164 1 22.6163 29.8765 0
165 1 8.96728 18.5196 0
166 1 13.6397 6.50684 0
167 1 27.1101 17.2011 0
168 1 18.5936 24.6944 0
169 1 1.49991 11.1427 0
170 1 28.5584 23.9852 0
171 1 10.6587 16.4241 0
172 1 29.0811 27.6121 0
173 1 13.0608 10.6982 0
174 1 14.6459 5.04317 0
175 1 19.025 15.9201 0
176 1 24.9362 7.44011 0
177 1 20.4408 14.1448 0
178 1 7.94566 17.6897 0
179 1 24.9121 18.4079 0
180 1 5.3416 19.6554 0
181 1 1.84613 21.3741 0
182 1 5.39006 10.6043 0
183 1 26.674 10.2398 0
184 1 23.7295 1.21644 0
185 1 16.3951 9.45634 0
186 1 21.338 27.2905 0
187 1 1.15861 25.5378 0
188 1 24.2805 27.162 0
189 1 3.45884 25.4738 0
190 1 24.1133 16.8799 0
191 1 14.4251 10.3149 0
192 1 10.1843 4.10987 0
193 1 21.1728 11.8276 0
194 1 25.4584 1.61356 0
ITEM: TIMESTEP
960
ITEM: NUMBER OF ATOMS
194
ITEM: BOX BOUNDS pp pp pp
0.0000000000000000e+00 3.0000000000000000e+01
0.0000000000000000e+00 3.0000000000000000e+01
-5.0000000000000000e-01 5.0000000000000000e-01
ITEM: ATOMS id type x y z
1 1 23.3519 9.26985 0
2 1 27.7811 13.2312 0
3 1 19.8924 2.59755 0
4 1 5.93107 14.1716 0
5 1 1.56927 28.2644 0
6 1 16.6647 4.52431 0
7 1 11.6767 25.4326 0
8 1 23.4582 15.2076 0
9 1 12.4139 25.3175 0
10 1 18.352 2.75628 0
11 1 27.7892 9.89282 0
12 1 6.39423 3.44819 0
13 1 18.6106 27.6719 0
14 1 4.08929 4.7728 0
15 1 20.8886 4.83139 0
16 1 10.5625 5.70618 0
17 1 0.601391 2.49042 0
18 1 24.0547 28.2898 0
19 1 20.3169 25.6864 0
20 1 4.10485 6.74184 0
21 1 10.8473 24.7271 0
22 1 15.4105 7.0961 0
23 1 29.4684 12.7788 0
24 1 28.2882 6.76655 0
25 1 26.6806 6.65918 0
26 1 10.1559 26.9605 0
27 1 5.58059 11.5416 0
28 1 23.118 4.63139 0
29 1 20.3612 4.18431 0
30 1 17.5147 2.12612 0
31 1 7.24602 24.8852 0
32 1 25.9869 27.9536 0
33 1 17.8659 17.5889 0
34 1 0.479834 20.9265 0
35 1 13.1621 5.1343 0
36 1 27.1516 16.0353 0
37 1 25.7513 14.0488 0
38 1 16.6025 13.444 0
39 1 0.809574 22.6792 0
40 1 11.4454 3.4941 0
41 1 26.3661 24.7256 0
42 1 4.46807 12.0174 0
43 1 6.05561 19.0053 0
44 1 12.4761 0.0511894 0
45 1 16.3589 29.8345 0
46 1 5.63528 2.15056 0
47 1 13.431 19.8644 0
48 1 14.3566 1.34063 0
49 1 25.2841 4.81549 0
50 1 3.57647 29.5849 0
51 1 20.2681 19.44 0
52 1 13.4662 22.773 0
53 1 28.2465 17.7465 0
54 1 20.5935 24.3996 0
55 1 25.2825 15.7609 0
56 1 1.55747 5.70964 0
57 1 11.7455 20.1286 0
58 1 9.176 4.79171 0
59 1 14.4381 13.5152 0
60 1 0.240285 1.5041 0
61 1 22.2445 16.2634 0
62 1 22.6984 7.54646 0
63 1 29.1276 0.331619 0
64 1 12.6775 16.0502 0
65 1 27.7078 22.8633 0
66 1 9.46115 6.41674 0
67 1 21.1199 21.7922 0
68 1 10.8451 22.8601 0
69 1 15.22 3.28005 0
70 1 6.81501 16.4831 0
71 1 3.23898 0.552565 0
72 1 12.6777 26.4795 0
73 1 13.4652 23.9438 0
74 1 20.2691 15.5167 0
75 1 12.0851 23.8594 0
76 1 15.1793 1.71073 0
77 1 11.1671 27.8391 0
78 1 3.69953 9.60386 0
79 1 13.0186 15.2281 0
80 1 8.5933 22.6664 0
81 1 21.4146 25.5786 0
82 1 25.6279 24.1651 0
83 1 10.4165 23.9278 0
84 1 25.1238 9.6857 0
85 1 8.76601 2.72196 0
86 1 22.1858 17.9676 0
87 1 14.6363 24.6618 0
88 1 4.80297 21.5184 0
89 1 25.3102 20.7755 0
90 1 13.5143 3.65162 0
91 1 4.44551 0.696613 0
92 1 22.1135 13.8054 0
93 1 7.02399 8.27098 0
94 1 26.8659 27.382 0
95 1 23.1648 18.8201 0
96 1 12.2411 29.1264 0
97 1 2.85419 3.46751 0
98 1 9.3652 1.87989 0
99 1 16.3634 7.5272 0
100 1 19.595 20.1538 0
101 1 8.79345 19.8006 0
102 1 17.572 24.1222 0
103 1 20.59 10.0508 0
104 1 5.44135 26.3623 0
105 1 18.789 17.5591 0
106 1 7.13735 11.4635 0
107 1 14.7556 29.9149 0
108 1 10.209 12.4211 0
109 1 15.0183 22.0226 0
110 1 28.683 9.68358 0
111 1 6.93432 6.26982 0
112 1 8.84488 4.01521 0
113 1 16.9358 19.6862 0
114 1 5.41634 4.49846 0
115 1 24.3882 14.9705 0
116 1 6.39035 27.4761 0
117 1 25.2973 22.6601 0
118 1 10.9989 10.1345 0
119 1 27.03 2.65465 0
120 1 13.0889 8.45402 0
121 1 24.0106 20.404 0
122 1 5.96579 20.1602 0
123 1 17.7986 21.2898 0
124 1 12.2704 12.6533 0
125 1 28.9033 11.8962 0
126 1 1.16527 13.3784 0
127 1 8.06956 1.76958 0
128 1 1.69157 18.688 0
129 1 7.05541 14.4432 0
130 1 9.80474 9.3528 0
131 1 22.2612 28.8134 0
132 1 27.7987 20.5366 0
133 1 5.93484 30.006 0
134 1 11.0738 1.92716 0
135 1 9.8714 0.789637 0
136 1 22.1667 21.2675 0
137 1 23.7671 11.9892 0
138 1 3.288 17.4334 0
139 1 6.20696 21.3291 0
140 1 28.8876 5.92141 0
141 1 26.0153 23.1995 0
142 1 5.97896 5.84314 0
143 1 22.1948 1.24457 0
144 1 29.7242 24.3534 0
145 1 9.77799 13.2795 0
146 1 29.7071 14.3765 0
147 1 2.67259 4.31419 0
148 1 11.7118 21.9957 0
149 1 5.27892 3.52308 0
150 1 0.856449 14.2563 0
151 1 12.1085 19.1103 0
152 1 5.41339 16.2213 0
153 1 19.74 6.60227 0
154 1 12.1955 2.47281 0
155 1 21.0195 3.10026 0
156 1 25.5829 5.94041 0
157 1 14.6291 12.5065 0
158 1 18.5678 11.5212 0
159 1 17.5491 15.1598 0
160 1 26.348 29.3259 0
161 1 18.1186 16.4309 0
162 1 22.4667 19.9175 0
163 1 29.1768 15.7139 0
164 1 22.5354 29.8361 0
165 1 8.57436 18.4651 0
166 1 13.0262 6.27758 0
167 1 27.492 16.9422 0
168 1 18.6027 24.6941 0
169 1 1.67576 10.9383 0
170 1 28.7714 24.1281 0
171 1 10.452 16.9984 0
172 1 29.281 27.7471 0
173 1 12.9907 9.99318 0
174 1 14.5056 4.60786 0
175 1 19.158 15.3642 0
176 1 25.0672 7.33132 0
177 1 20.3001 14.2052 0
178 1 7.69172 17.827 0
179 1 25.1962 18.5534 0
180 1 5.08901 19.5704 0
181 1 1.53407 21.789 0
182 1 5.7229 10.6816 0
183 1 26.6711 10.1818 0
184 1 23.7015 1.09903 0
185 1 16.2824 9.61048 0
186 1 21.5151 27.532 0
187 1 1.36131 25.0252 0
188 1 24.3816 27.4047 0
189 1 3.25128 25.641 0
190 1 24.1736 17.0148 0
191 1 14.2756 9.86878 0
192 1 10.1595 4.12193 0
193 1 21.3551 11.8179 0
194 1 25.7 1.95021 0
ITEM: TIMESTEP
975
ITEM: NUMBER OF ATOMS
194
ITEM: BOX BOUNDS pp pp pp
0.0000000000000000e+00 3.0000000000000000e+01
0.0000000000000000e+00 3.0000000000000000e+01
-5.0000000000000000e-01 5.0000000000000000e-01
ITEM: ATOMS id type x y z
1 1 23.2357 9.59119 0
2 1 27.5085 13.1006 0
3 1 19.8778 2.77474 0
4 1 6.23133 14.5687 0
5 1 1.48873 28.2456 0
6 1 16.7325 4.14732 0
7 1 11.4078 24.9884 0
8 1 23.4695 15.5022 0
9 1 13.1951 25.2516 0
10 1 18.2824 2.77582 0
11 1 27.8814 9.77562 0
12 1 6.53183 3.48413 0
13 1 18.5005 27.8345 0
14 1 3.8584 4.57335 0
15 1 21.0052 4.95844 0
16 1 10.502 5.57146 0
17 1 0.892774 2.13038 0
18 1 23.7467 28.388 0
19 1 20.2827 25.633 0
20 1 4.01056 7.25182 0
21 1 10.3973 24.8942 0
22 1 15.6543 7.14972 0
23 1 29.8784 12.5327 0
24 1 28.1956 7.03621 0
25 1 26.7415 6.82481 0
26 1 10.3735 27.1145 0
27 1 5.5545 11.746 0
28 1 23.5148 4.58052 0
29 1 20.1301 4.05927 0
30 1 17.2017 2.17968 0
31 1 7.28389 24.9775 0
32 1 26.382 28.1251 0
33 1 18.0465 17.3772 0
34 1 0.465636 20.6404 0
35 1 13.1387 4.42179 0
36 1 27.3745 15.6242 0
37 1 25.5551 14.4367 0
38 1 16.7599 13.2246 0
39 1 0.772344 22.7649 0
40 1 11.4338 3.67598 0
41 1 26.5924 25.121 0
42 1 3.87558 11.8264 0
43 1 5.90263 18.9583 0
44 1 13.2361 29.873 0
45 1 15.6688 29.7653 0
46 1 5.54763 2.38891 0
47 1 13.6998 19.7657 0
48 1 14.0353 1.48828 0
49 1 25.2823 4.96446 0
50 1 3.50397 29.451 0
51 1 20.1241 19.3147 0
52 1 13.2636 22.968 0
53 1 28.5198 17.4099 0
54 1 20.5307 24.7745 0
55 1 25.2867 15.7449 0
56 1 1.36105 6.26752 0
57 1 11.8505 19.8989 0
58 1 9.26578 5.05521 0
59 1 14.1751 13.6022 0
60 1 0.24759 1.45564 0
61 1 21.8032 16.2608 0
62 1 22.253 7.23134 0
63 1 29.0447 0.238033 0
64 1 12.8234 16.1124 0
65 1 27.5723 22.971 0
66 1 9.23676 6.25148 0
67 1 21.1275 22.0424 0
68 1 10.9975 22.6833 0
69 1 15.4517 3.12665 0
70 1 6.81204 16.6002 0
71 1 3.38838 0.425438 0
72 1 12.8737 26.5233 0
73 1 13.4177 24.1922 0
74 1 20.3216 15.4557 0
75 1 12.6294 23.9455 0
76 1 15.1869 1.51053 0
77 1 11.3599 27.7947 0
78 1 4.02688 9.832 0
79 1 13.1589 15.0813 0
80 1 8.4977 22.9158 0
81 1 22.0533 25.7945 0
82 1 26.0605 24.1156 0
83 1 10.5951 23.7297 0
84 1 25.2899 9.32539 0
85 1 8.49338 3.13171 0
86 1 22.0927 17.9258 0
87 1 14.3909 24.6199 0
88 1 5.05712 21.9268 0
89 1 25.678 20.59 0
90 1 13.6144 3.73685 0
91 1 4.22078 0.752087 0
92 1 21.7559 14.043 0
93 1 6.82797 8.51523 0
94 1 27.3318 27.1397 0
95 1 23.3199 18.7611 0
96 1 11.9514 29.4264 0
97 1 3.2221 3.23542 0
98 1 9.55001 1.87924 0
99 1 16.6412 7.65058 0
100 1 19.7159 20.3065 0
101 1 8.55193 20.0342 0
102 1 17.6386 23.5392 0
103 1 20.5204 10.2275 0
104 1 5.58607 26.4842 0
105 1 19.1024 17.2185 0
106 1 7.01773 11.5966 0
107 1 14.2944 29.8109 0
108 1 10.1385 11.9977 0
109 1 15.0328 22.166 0
110 1 28.9576 9.95083 0
111 1 6.77572 6.48916 0
112 1 8.61006 4.03287 0
113 1 16.506 20.1322 0
114 1 5.3621 4.60776 0
115 1 24.2603 14.6389 0
116 1 6.10541 27.5965 0
117 1 24.9499 22.4428 0
118 1 11.2901 10.3093 0
119 1 26.9198 2.64972 0
120 1 13.196 8.62826 0
121 1 24.1236 20.5385 0
122 1 5.86473 19.9356 0
123 1 17.736 21.067 0
124 1 12.5296 12.429 0
125 1 29.1163 11.656 0
126 1 1.24 13.5155 0
127 1 8.53523 1.75602 0
128 1 1.37544 18.6696 0
129 1 7.11053 14.3747 0
130 1 9.74697 8.99382 0
131 1 22.0828 28.9121 0
132 1 27.6418 20.7693 0
133 1 6.00966 0.257098 0
134 1 11.0384 2.05406 0
135 1 9.58056 0.841819 0
136 1 22.2501 21.3499 0
137 1 23.4839 11.7255 0
138 1 3.57519 17.5902 0
139 1 5.87365 22.0554 0
140 1 28.9628 5.82473 0
141 1 26.0468 22.8855 0
142 1 5.76345 5.76306 0
143 1 22.0611 1.59337 0
144 1 29.8196 24.1931 0
145 1 10.1031 13.7106 0
146 1 29.5035 14.4621 0
147 1 2.52695 4.22403 0
148 1 11.7962 22.1236 0
149 1 5.01252 3.09085 0
150 1 0.728735 14.5251 0
151 1 12.5599 18.7198 0
152 1 5.53789 16.1379 0
153 1 20.1891 6.72669 0
154 1 12.1195 2.46177 0
155 1 20.757 3.03117 0
156 1 25.2257 5.85638 0
157 1 14.7882 12.4845 0
158 1 18.4856 11.799 0
159 1 17.1042 15.0263 0
160 1 26.0099 28.8893 0
161 1 18.1925 16.546 0
162 1 22.3324 19.9261 0
163 1 29.2267 15.2829 0
164 1 22.461 29.8188 0
165 1 8.20291 18.4278 0
166 1 12.4551 6.23611 0
167 1 27.8644 16.8169 0
168 1 18.6112 24.6925 0
169 1 1.85168 10.7339 0
170 1 28.8511 24.2531 0
171 1 10.2453 17.5728 0
172 1 29.4809 27.8822 0
173 1 12.9074 9.34533 0
174 1 14.3676 4.17397 0
175 1 19.2902 14.8085 0
176 1 25.1998 7.2197 0
177 1 20.1585 14.2716 0
178 1 7.41574 17.9495 0
179 1 25.4796 18.6988 0
180 1 4.80444 19.4624 0
181 1 1.36261 22.0229 0
182 1 6.10575 10.2063 0
183 1 26.5969 10.1415 0
184 1 23.6705 0.981048 0
185 1 16.1693 9.76436 0
186 1 21.6935 27.7756 0
187 1 1.56351 24.5122 0
188 1 24.5162 27.5595 0
189 1 3.04351 25.808 0
190 1 24.2344 17.1487 0
191 1 14.1207 9.42226 0
192 1 10.1293 4.13605 0
193 1 21.5374 11.8079 0
194 1 25.9437 2.28791 0
ITEM: TIMESTEP
990
ITEM: NUMBER OF ATOMS
194
ITEM: BOX BOUNDS pp pp pp
0.0000000000000000e+00 3.0000000000000000e+01
0.0000000000000000e+00 3.0000000000000000e+01
-5.0000000000000000e-01 5.0000000000000000e-01
ITEM: ATOMS id type x y z
1 1 23.1198 9.91278 0
2 1 27.2364 12.9699 0
3 1 19.6628 2.90393 0
4 1 6.3681 14.9997 0
5 1 1.40792 28.2268 0
6 1 16.7993 3.76858 0
7 1 11.1442 24.5477 0
8 1 23.4702 15.8026 0
9 1 13.9563 25.33 0
10 1 18.2114 2.79397 0
11 1 27.8409 9.66546 0
12 1 6.66483 3.51878 0
13 1 18.3905 27.9971 0
14 1 3.62572 4.36999 0
15 1 21.1859 5.15945 0
16 1 10.4348 5.43401 0
17 1 1.30817 1.93605 0
18 1 23.4304 28.4999 0
19 1 20.1585 25.8693 0
20 1 3.91639 7.76168 0
21 1 9.94445 25.1528 0
22 1 15.895 7.20187 0
23 1 0.287886 12.2869 0
24 1 28.1017 7.30287 0
25 1 26.8027 6.9906 0
26 1 10.5941 27.2704 0
27 1 5.52963 11.9511 0
28 1 23.9127 4.53007 0
29 1 19.8368 3.85463 0
30 1 16.8912 2.23566 0
31 1 7.32169 25.0697 0
32 1 26.9191 27.8506 0
33 1 18.1212 17.5423 0
34 1 0.452548 20.3556 0
35 1 12.8121 4.09712 0
36 1 27.5992 15.2166 0
37 1 25.3544 14.8239 0
38 1 16.9173 13.0056 0
39 1 0.466227 23.1866 0
40 1 11.4209 3.85506 0
41 1 26.8326 25.5306 0
42 1 3.2847 11.6346 0
43 1 5.74845 18.8274 0
44 1 13.1862 29.7628 0
45 1 15.2918 29.7039 0
46 1 5.65264 2.42794 0
47 1 13.9663 19.6656 0
48 1 13.581 1.60091 0
49 1 25.294 4.92363 0
50 1 3.4849 29.0592 0
51 1 19.991 19.1725 0
52 1 13.0776 23.1337 0
53 1 29.0285 17.2937 0
54 1 20.5591 24.8601 0
55 1 25.2882 15.729 0
56 1 1.16464 6.82525 0
57 1 11.9581 19.666 0
58 1 9.38372 5.31766 0
59 1 13.9129 13.6873 0
60 1 0.13001 1.24059 0
61 1 21.3615 16.2581 0
62 1 21.807 6.91612 0
63 1 28.9627 0.145222 0
64 1 12.9522 16.2203 0
65 1 27.4344 23.0794 0
66 1 9.00695 6.10998 0
67 1 21.1391 22.2899 0
68 1 11.0666 22.5524 0
69 1 15.6825 2.97428 0
70 1 6.80619 16.7182 0
71 1 3.25545 0.466233 0
72 1 13.0701 26.5625 0
73 1 13.4768 24.3816 0
74 1 20.3715 15.3889 0
75 1 12.7077 23.9093 0
76 1 15.3278 1.34423 0
77 1 11.5503 27.7488 0
78 1 4.35435 10.0607 0
79 1 13.3169 14.8879 0
80 1 8.40226 23.1653 0
81 1 22.6898 26.0102 0
82 1 26.4794 24.0478 0
83 1 10.752 23.4437 0
84 1 25.4576 8.96594 0
85 1 8.17962 3.26087 0
86 1 22.0018 17.8849 0
87 1 14.5231 24.6468 0
88 1 4.8642 22.2448 0
89 1 26.0439 20.4044 0
90 1 13.6794 3.23619 0
91 1 4.22574 0.897665 0
92 1 21.3961 14.2814 0
93 1 6.63156 8.76014 0
94 1 27.7946 26.9003 0
95 1 23.4718 18.7022 0
96 1 11.6524 29.7109 0
97 1 3.60203 2.97774 0
98 1 9.82164 1.91065 0
99 1 16.922 7.77566 0
100 1 19.8261 20.4764 0
101 1 8.31001 20.2659 0
102 1 17.7071 22.958 0
103 1 20.4511 10.4047 0
104 1 5.73278 26.6099 0
105 1 19.4533 16.8735 0
106 1 6.89442 11.729 0
107 1 14.3391 29.649 0
108 1 10.0683 11.5752 0
109 1 15.0469 22.3095 0
110 1 29.3606 10.214 0
111 1 6.61419 6.70651 0
112 1 8.40682 4.29934 0
113 1 16.0777 20.5795 0
114 1 5.30692 4.71573 0
115 1 24.1497 14.304 0
116 1 5.81859 27.7132 0
117 1 24.5915 22.2178 0
118 1 11.5815 10.4837 0
119 1 26.9666 2.68223 0
120 1 13.5632 8.097 0
121 1 24.2379 20.6729 0
122 1 5.75957 19.7966 0
123 1 17.6721 20.8431 0
124 1 12.7891 12.2049 0
125 1 29.3302 11.4155 0
126 1 1.31758 13.6411 0
127 1 8.91644 1.73481 0
128 1 1.05929 18.6513 0
129 1 7.32849 14.2742 0
130 1 9.68962 8.63518 0
131 1 21.8817 28.9583 0
132 1 27.4843 21.0021 0
133 1 6.0837 0.508689 0
134 1 11.002 2.18255 0
135 1 9.28962 0.875997 0
136 1 22.3301 21.4313 0
137 1 23.2001 11.4614 0
138 1 3.86252 17.7471 0
139 1 5.98748 22.871 0
140 1 29.0364 5.73067 0
141 1 26.0922 22.5824 0
142 1 5.54983 5.68322 0
143 1 21.9282 1.94133 0
144 1 0.0569526 24.0376 0
145 1 10.4283 14.1406 0
146 1 29.5563 13.8349 0
147 1 2.3754 4.16296 0
148 1 11.9681 22.2009 0
149 1 4.55624 2.86274 0
150 1 0.590543 14.8048 0
151 1 13.0111 18.334 0
152 1 5.66707 16.0547 0
153 1 20.6391 6.85076 0
154 1 12.0403 2.45358 0
155 1 20.6911 3.01572 0
156 1 24.8549 5.96686 0
157 1 14.9458 12.4652 0
158 1 18.4032 12.0769 0
159 1 16.66 14.8928 0
160 1 25.532 28.8948 0
161 1 18.335 16.2872 0
162 1 22.1998 19.936 0
163 1 29.0252 15.5646 0
164 1 22.411 29.8584 0
165 1 7.95741 18.4677 0
166 1 11.884 6.19359 0
167 1 28.0005 16.4668 0
168 1 18.6189 24.6892 0
169 1 2.0279 10.5296 0
170 1 28.7897 24.3719 0
171 1 10.0385 18.1472 0
172 1 29.6811 28.0173 0
173 1 12.5672 9.40042 0
174 1 14.5684 3.93604 0
175 1 19.2132 14.3313 0
176 1 25.3343 7.10352 0
177 1 20.2316 14.2664 0
178 1 7.01229 17.9942 0
179 1 25.7624 18.8445 0
180 1 4.52587 19.3531 0
181 1 1.45871 21.9209 0
182 1 6.48945 9.73019 0
183 1 26.5254 10.0988 0
184 1 23.6374 0.862504 0
185 1 16.056 9.91796 0
186 1 21.8727 28.0156 0
187 1 1.76471 23.9987 0
188 1 24.6585 27.7019 0
189 1 2.83542 25.9748 0
190 1 24.2951 17.282 0
191 1 13.9621 8.97873 0
192 1 10.0971 4.15477 0
193 1 21.72 11.7976 0
194 1 26.0303 2.58815 0
ITEM: TIMESTEP
1005
ITEM: NUMBER OF ATOMS
194
ITEM: BOX BOUNDS pp pp pp
0.0000000000000000e+00 3.0000000000000000e+01
0.0000000000000000e+00 3.0000000000000000e+01
-5.0000000000000000e-01 5.0000000000000000e-01
ITEM: ATOMS id type x y z
1 1 23.004 10.2362 0
2 1 26.9643 12.8393 0
3 1 19.3154 2.86521 0
4 1 6.49679 15.4316 0
5 1 1.32614 28.2079 0
6 1 16.8637 3.38438 0
7 1 10.8827 24.1297 0
8 1 23.4732 16.1023 0
9 1 14.5637 25.7198 0
10 1 18.1398 2.81199 0
11 1 27.7986 9.55713 0
12 1 6.79796 3.55174 0
13 1 18.2804 28.1598 0
14 1 3.38957 4.16166 0
15 1 21.3659 5.36143 0
16 1 10.4285 5.29323 0
17 1 1.72307 1.74194 0
18 1 23.1127 28.6111 0
19 1 19.9961 26.2174 0
20 1 3.82227 8.27166 0
21 1 9.49357 25.4093 0
22 1 16.139 7.25592 0
23 1 0.693978 12.0396 0
24 1 28.0038 7.56779 0
25 1 26.8651 7.15761 0
26 1 10.8007 27.4202 0
27 1 5.50843 12.1552 0
28 1 24.3141 4.48145 0
29 1 19.5796 3.79612 0
30 1 16.5861 2.29251 0
31 1 7.35945 25.1619 0
32 1 27.4604 27.5698 0
33 1 18.1957 17.7223 0
34 1 0.440128 20.0706 0
35 1 12.4193 3.8433 0
36 1 27.8279 14.8142 0
37 1 25.1557 14.9295 0
38 1 17.0754 12.7865 0
39 1 0.334509 23.1442 0
40 1 11.407 4.03303 0
41 1 27.0731 25.9388 0
42 1 2.69312 11.4411 0
43 1 5.59237 18.6039 0
44 1 12.7202 29.6808 0
45 1 16.0665 29.6736 0
46 1 5.81744 2.41885 0
47 1 14.2317 19.5644 0
48 1 13.1274 1.71489 0
49 1 25.3089 4.85041 0
50 1 3.46551 28.6704 0
51 1 19.8574 19.034 0
52 1 13.0229 23.0294 0
53 1 29.54 17.1791 0
54 1 20.625 24.8336 0
55 1 25.2817 15.9933 0
56 1 0.968127 7.38293 0
57 1 12.0669 19.4321 0
58 1 9.53403 5.37192 0
59 1 13.6509 13.7707 0
60 1 0.011768 1.0241 0
61 1 20.9168 16.2536 0
62 1 21.7035 6.52371 0
63 1 28.882 0.0534593 0
64 1 13.0819 16.3249 0
65 1 27.2951 23.1839 0
66 1 8.68414 6.1685 0
67 1 21.1529 22.5355 0
68 1 11.0822 22.3307 0
69 1 15.9106 2.82733 0
70 1 6.79674 16.8378 0
71 1 3.04063 0.470273 0
72 1 13.2676 26.5996 0
73 1 13.3762 24.4496 0
74 1 20.423 15.3207 0
75 1 12.4145 24.0165 0
76 1 15.4681 1.17807 0
77 1 11.7552 27.7089 0
78 1 4.68177 10.2898 0
79 1 13.4746 14.6977 0
80 1 8.30677 23.4151 0
81 1 23.326 26.226 0
82 1 26.8975 23.983 0
83 1 10.8634 23.2728 0
84 1 25.6267 8.6072 0
85 1 7.84219 3.26041 0
86 1 21.9118 17.844 0
87 1 15.2024 24.6097 0
88 1 4.60659 22.5449 0
89 1 26.4104 20.2181 0
90 1 13.6991 2.59673 0
91 1 4.31346 1.07786 0
92 1 21.1913 14.564 0
93 1 6.40892 8.57031 0
94 1 28.2531 26.6637 0
95 1 23.6229 18.6423 0
96 1 11.3557 29.995 0
97 1 3.36663 2.80651 0
98 1 10.2305 1.96281 0
99 1 17.1995 7.899 0
100 1 19.9368 20.6424 0
101 1 8.06794 20.4969 0
102 1 17.7759 22.3771 0
103 1 20.3821 10.5823 0
104 1 5.87983 26.7345 0
105 1 19.7989 16.5261 0
106 1 6.76705 11.8616 0
107 1 13.6458 29.4305 0
108 1 9.99858 11.1524 0
109 1 15.0609 22.4528 0
110 1 29.7723 10.4226 0
111 1 6.4505 6.9221 0
112 1 8.22946 4.69762 0
113 1 15.6506 21.0274 0
114 1 5.23473 4.74376 0
115 1 24.0429 13.973 0
116 1 5.53156 27.8307 0
117 1 24.2351 21.9911 0
118 1 11.8743 10.6562 0
119 1 27.2626 2.7611 0
120 1 13.9148 7.49049 0
121 1 24.3529 20.8091 0
122 1 5.65012 19.7485 0
123 1 17.6068 20.6191 0
124 1 13.049 11.981 0
125 1 29.5369 11.2324 0
126 1 1.39152 13.7693 0
127 1 9.08463 1.82054 0
128 1 0.742769 18.6339 0
129 1 7.56082 14.169 0
130 1 9.6323 8.27654 0
131 1 21.6606 29.0987 0
132 1 27.3246 21.2345 0
133 1 6.15706 0.760889 0
134 1 10.9877 2.32293 0
135 1 9.04103 0.771188 0
136 1 22.4078 21.5117 0
137 1 22.9136 11.1964 0
138 1 4.15058 17.9054 0
139 1 6.16613 23.7046 0
140 1 29.1097 5.63742 0
141 1 26.1392 22.2818 0
142 1 5.35464 5.68384 0
143 1 21.7944 2.28996 0
144 1 0.121206 24.347 0
145 1 10.7534 14.5704 0
146 1 29.6131 13.2081 0
147 1 2.22999 4.10143 0
148 1 12.24 22.2358 0
149 1 4.65634 2.60326 0
150 1 0.450795 15.0795 0
151 1 13.4623 17.95 0
152 1 5.79431 15.9789 0
153 1 20.7465 7.05013 0
154 1 11.9732 2.45052 0
155 1 20.7202 3.02127 0
156 1 24.4797 6.11295 0
157 1 15.1022 12.4476 0
158 1 18.3198 12.3556 0
159 1 16.216 14.7589 0
160 1 25.0512 28.9003 0
161 1 18.4846 16.0143 0
162 1 22.0682 19.9475 0
163 1 28.8536 15.8308 0
164 1 22.3762 29.922 0
165 1 7.74753 18.5277 0
166 1 11.3114 6.14986 0
167 1 28.1006 16.1252 0
168 1 18.627 24.6857 0
169 1 2.20535 10.3266 0
170 1 28.7298 24.4895 0
171 1 9.83142 18.7217 0
172 1 29.8821 28.1527 0
173 1 12.221 9.47265 0
174 1 14.8791 3.76069 0
175 1 18.9207 13.9169 0
176 1 25.4695 6.98284 0
177 1 20.3652 14.1598 0
178 1 6.57013 18.0162 0
179 1 26.0452 18.9923 0
180 1 4.25547 19.2423 0
181 1 1.55358 21.8197 0
182 1 6.89917 9.68899 0
183 1 26.4562 10.0534 0
184 1 23.6025 0.742843 0
185 1 15.9426 10.0714 0
186 1 22.0624 28.1378 0
187 1 1.96327 23.4841 0
188 1 24.8 27.8484 0
189 1 2.62723 26.1415 0
190 1 24.3549 17.4152 0
191 1 13.8234 8.5957 0
192 1 10.0664 4.18054 0
193 1 21.9048 11.7859 0
194 1 25.8678 2.84213 0
ITEM: TIMESTEP
1020
ITEM: NUMBER OF ATOMS
194
ITEM: BOX BOUNDS pp pp pp
0.0000000000000000e+00 3.0000000000000000e+01
0.0000000000000000e+00 3.0000000000000000e+01
-5.0000000000000000e-01 5.0000000000000000e-01
ITEM: ATOMS id type x y z
1 1 22.9509 10.2413 0
2 1 26.6923 12.709 0
3 1 18.9458 2.67824 0
4 1 6.81295 15.7383 0
5 1 1.24132 28.1889 0
6 1 16.9384 3.00709 0
7 1 10.6232 24.0254 0
8 1 23.4783 16.4032 0
9 1 15.1649 26.1138 0
10 1 18.0524 2.83284 0
11 1 27.7535 9.44961 0
12 1 6.81727 3.62817 0
13 1 18.1703 28.3224 0
14 1 3.15177 3.94857 0
15 1 21.4857 5.46612 0
16 1 10.6254 5.12949 0
17 1 2.1385 1.54726 0
18 1 22.8439 28.7621 0
19 1 19.8345 26.5629 0
20 1 3.72819 8.78189 0
21 1 9.04308 25.6651 0
22 1 16.3873 7.31272 0
23 1 1.09656 11.7911 0
24 1 27.9018 7.83156 0
25 1 26.9276 7.32615 0
26 1 10.9623 27.5566 0
27 1 5.49198 12.3578 0
28 1 24.624 4.39206 0
29 1 19.3613 3.88195 0
30 1 16.6028 2.06569 0
31 1 7.39689 25.2532 0
32 1 28.0042 27.2839 0
33 1 18.2711 17.9008 0
34 1 0.428418 19.7828 0
35 1 12.0747 3.56439 0
36 1 28.0595 14.4176 0
37 1 24.952 14.9062 0
38 1 17.2353 12.5666 0
39 1 0.279189 22.8833 0
40 1 11.3389 4.23188 0
41 1 27.3175 26.3498 0
42 1 2.09949 11.2449 0
43 1 5.3944 18.3969 0
44 1 12.1547 29.6302 0
45 1 16.8403 29.6447 0
46 1 5.98703 2.41107 0
47 1 14.4966 19.4626 0
48 1 12.6494 1.80728 0
49 1 25.4145 4.8214 0
50 1 3.44594 28.2823 0
51 1 19.7239 18.8971 0
52 1 13.0143 22.9318 0
53 1 30.05 17.062 0
54 1 20.6894 24.8094 0
55 1 25.276 16.3858 0
56 1 0.771591 7.9406 0
57 1 12.176 19.1979 0
58 1 9.49345 5.41402 0
59 1 13.4009 13.6784 0
60 1 29.8923 0.80621 0
61 1 20.8478 16.2188 0
62 1 22.0629 6.12401 0
63 1 28.8036 29.9633 0
64 1 13.2126 16.4296 0
65 1 27.2487 23.0398 0
66 1 8.34829 6.2445 0
67 1 21.168 22.78 0
68 1 11.1316 21.9738 0
69 1 15.8089 2.95432 0
70 1 6.78224 16.9569 0
71 1 2.82834 0.475845 0
72 1 13.4661 26.6357 0
73 1 13.3338 24.5475 0
74 1 20.4429 15.2487 0
75 1 12.0454 24.1229 0
76 1 15.6103 1.01296 0
77 1 12.0057 27.6825 0
78 1 5.00929 10.5191 0
79 1 13.6201 14.6838 0
80 1 8.21093 23.6655 0
81 1 23.9623 26.4423 0
82 1 27.2211 24.1648 0
83 1 10.9412 22.9253 0
84 1 25.7969 8.24748 0
85 1 7.61787 3.21734 0
86 1 21.8221 17.8031 0
87 1 15.8841 24.5681 0
88 1 4.34963 22.8453 0
89 1 26.7785 20.0324 0
90 1 13.7436 1.97916 0
91 1 4.39948 1.25927 0
92 1 21.3595 14.9499 0
93 1 6.16063 8.14245 0
94 1 28.7057 26.4286 0
95 1 23.775 18.5795 0
96 1 11.0627 0.278353 0
97 1 2.85644 2.67661 0
98 1 10.3097 1.85509 0
99 1 17.4724 8.01965 0
100 1 20.0477 20.8067 0
101 1 7.82583 20.7275 0
102 1 17.8446 21.7952 0
103 1 20.3136 10.7602 0
104 1 6.02606 26.8608 0
105 1 19.7737 16.2215 0
106 1 6.6348 11.9952 0
107 1 13.0487 29.1819 0
108 1 9.92935 10.7295 0
109 1 15.0755 22.5941 0
110 1 0.277663 10.2802 0
111 1 6.28581 7.13826 0
112 1 8.05494 5.09647 0
113 1 15.2229 21.4774 0
114 1 5.14403 4.65083 0
115 1 23.9384 13.6444 0
116 1 5.24531 27.9465 0
117 1 23.8768 21.7655 0
118 1 12.1688 10.8248 0
119 1 27.5573 2.84023 0
120 1 14.2627 6.86591 0
121 1 24.4695 20.9439 0
122 1 5.53825 19.7026 0
123 1 17.5413 20.3962 0
124 1 13.3087 11.757 0
125 1 29.6531 11.4037 0
126 1 1.46353 13.8982 0
127 1 9.23353 1.97532 0
128 1 0.425339 18.6189 0
129 1 7.79183 14.0651 0
130 1 9.57493 7.91775 0
131 1 21.4262 29.2902 0
132 1 27.1606 21.466 0
133 1 6.22943 1.01465 0
134 1 11.1444 2.62268 0
135 1 8.80558 0.597785 0
136 1 22.485 21.5915 0
137 1 22.5994 11.2149 0
138 1 4.4408 18.0686 0
139 1 6.34502 24.5384 0
140 1 29.1828 5.54439 0
141 1 26.1898 21.9818 0
142 1 5.17879 5.80578 0
143 1 21.6586 2.64003 0
144 1 0.107539 24.875 0
145 1 11.0786 15.0003 0
146 1 29.672 12.5799 0
147 1 2.08766 4.03919 0
148 1 12.4829 22.2354 0
149 1 5.0267 2.30425 0
150 1 0.310524 15.353 0
151 1 13.9132 17.5657 0
152 1 5.73965 16.0335 0
153 1 20.4512 7.3539 0
154 1 12.072 2.45533 0
155 1 20.745 3.02729 0
156 1 24.109 6.25845 0
157 1 15.2584 12.4304 0
158 1 18.2349 12.6366 0
159 1 15.7721 14.6247 0
160 1 24.5687 28.9255 0
161 1 18.638 15.7438 0
162 1 21.9369 19.9603 0
163 1 29.1315 15.9185 0
164 1 22.3482 29.9886 0
165 1 7.53363 18.5861 0
166 1 10.7386 6.11032 0
167 1 27.7515 15.9582 0
168 1 18.6358 24.6824 0
169 1 2.38422 10.1266 0
170 1 28.6727 24.6063 0
171 1 9.62415 19.2962 0
172 1 0.0861238 28.2881 0
173 1 11.8743 9.54932 0
174 1 15.1893 3.58363 0
175 1 18.6308 13.5021 0
176 1 25.6053 6.86096 0
177 1 20.1452 13.94 0
178 1 6.17014 18.0149 0
179 1 26.3284 19.1425 0
180 1 3.99025 19.1272 0
181 1 1.64807 21.7202 0
182 1 7.33439 9.88436 0
183 1 26.3896 10.0057 0
184 1 23.5651 0.62134 0
185 1 15.8292 10.2247 0
186 1 22.2134 28.1674 0
187 1 2.15969 22.9679 0
188 1 24.9418 27.9755 0
189 1 2.419 26.3082 0
190 1 24.4126 17.5487 0
191 1 13.6878 8.23122 0
192 1 10.0386 4.21305 0
193 1 22.0543 11.8087 0
194 1 25.7062 3.09636 0
ITEM: TIMESTEP
1035
ITEM: NUMBER OF ATOMS
194
ITEM: BOX BOUNDS pp pp pp
0.0000000000000000e+00 3.0000000000000000e+01
0.0000000000000000e+00 3.0000000000000000e+01
-5.0000000000000000e-01 5.0000000000000000e-01
ITEM: ATOMS id type x y z
1 1 22.951 10.0255 0
2 1 26.4205 12.5788 0
3 1 18.7573 2.45554 0
4 1 7.18408 16.0199 0
5 1 1.16635 28.1674 0
6 1 16.9893 2.67198 0
7 1 10.3623 23.9729 0
8 1 23.486 16.7065 0
9 1 15.7657 26.5067 0
10 1 17.8273 2.89599 0
11 1 27.7057 9.34106 0
12 1 6.56833 3.82288 0
13 1 18.0596 28.4858 0
14 1 2.92603 3.72903 0
15 1 21.3785 5.25192 0
16 1 10.7433 5.04534 0
17 1 2.55407 1.36629 0
18 1 22.7952 29.1099 0
19 1 19.673 26.9077 0
20 1 3.63353 9.29291 0
21 1 8.5912 25.9202 0
22 1 16.6396 7.37224 0
23 1 1.2519 11.7859 0
24 1 27.8045 8.10048 0
25 1 26.9791 7.49216 0
26 1 11.1029 27.6894 0
27 1 5.47958 12.5585 0
28 1 24.7102 4.18891 0
29 1 19.1429 3.96442 0
30 1 16.6861 1.71674 0
31 1 7.4446 25.3449 0
32 1 28.5521 27.0052 0
33 1 18.3476 18.0796 0
34 1 0.41866 19.5009 0
35 1 11.7598 3.42987 0
36 1 28.2913 14.0236 0
37 1 24.7476 14.8844 0
38 1 17.2344 12.3114 0
39 1 0.224972 22.6227 0
40 1 11.2984 4.35297 0
41 1 27.5586 26.7575 0
42 1 1.74925 10.8015 0
43 1 5.35466 18.4868 0
44 1 11.5205 29.609 0
45 1 17.6143 29.6156 0
46 1 6.24085 2.4167 0
47 1 14.7614 19.3606 0
48 1 12.3906 1.54003 0
49 1 25.7444 4.90529 0
50 1 3.42683 27.8942 0
51 1 19.5897 18.7601 0
52 1 13.1584 23.0364 0
53 1 0.558433 16.9429 0
54 1 20.7533 24.7854 0
55 1 25.2669 16.7783 0
56 1 0.575044 8.49844 0
57 1 12.2853 18.9635 0
58 1 9.43737 5.45594 0
59 1 13.1474 13.475 0
60 1 29.7696 0.585839 0
61 1 21.2293 16.154 0
62 1 22.6492 6.04403 0
63 1 28.7285 29.8753 0
64 1 13.3457 16.5369 0
65 1 27.2241 22.8072 0
66 1 8.01899 6.33733 0
67 1 21.1836 23.0241 0
68 1 11.2009 21.5417 0
69 1 15.9386 2.8147 0
70 1 6.76288 17.0739 0
71 1 2.61869 0.471579 0
72 1 13.6649 26.6718 0
73 1 13.2878 24.6428 0
74 1 20.3853 15.184 0
75 1 11.677 24.2264 0
76 1 15.7551 0.850403 0
77 1 12.2785 27.6607 0
78 1 5.33709 10.7489 0
79 1 13.7695 14.7811 0
80 1 8.11457 23.9171 0
81 1 24.599 26.6595 0
82 1 27.5237 24.432 0
83 1 11.0107 22.6029 0
84 1 25.9697 7.88294 0
85 1 7.65971 3.05415 0
86 1 21.7324 17.7618 0
87 1 16.5649 24.5275 0
88 1 4.09247 23.1459 0
89 1 27.1961 19.9269 0
90 1 13.8073 1.37475 0
91 1 4.4848 1.44187 0
92 1 21.594 15.3088 0
93 1 5.84375 8.03683 0
94 1 29.1583 26.1881 0
95 1 23.9277 18.5149 0
96 1 10.7736 0.560734 0
97 1 2.34539 2.54942 0
98 1 10.3636 1.72603 0
99 1 17.7411 8.13753 0
100 1 20.1586 20.9705 0
101 1 7.58382 20.9577 0
102 1 17.9126 21.2099 0
103 1 20.2456 10.9384 0
104 1 6.1701 26.9902 0
105 1 19.3606 16.0006 0
106 1 6.4983 12.1299 0
107 1 12.5153 28.9052 0
108 1 9.86045 10.3065 0
109 1 15.0942 22.7648 0
110 1 0.790085 10.1224 0
111 1 6.18945 7.03175 0
112 1 7.87941 5.47611 0
113 1 14.7908 21.8981 0
114 1 5.05285 4.5518 0
115 1 23.835 13.317 0
116 1 4.96064 28.0588 0
117 1 23.503 21.56 0
118 1 12.4647 10.9907 0
119 1 27.8512 2.91946 0
120 1 14.6099 6.24411 0
121 1 24.6007 21.0585 0
122 1 5.42456 19.6501 0
123 1 17.4766 20.1766 0
124 1 13.5664 11.5318 0
125 1 29.7709 11.2574 0
126 1 1.53486 14.0273 0
127 1 9.37494 2.12903 0
128 1 0.105726 18.5967 0
129 1 8.0225 13.9615 0
130 1 9.51753 7.55835 0
131 1 21.198 29.4795 0
132 1 27.0719 21.6788 0
133 1 6.29959 1.27298 0
134 1 11.0816 2.94234 0
135 1 8.57147 0.427569 0
136 1 22.5627 21.6712 0
137 1 22.5896 11.0719 0
138 1 4.2907 18.0867 0
139 1 6.51553 25.3717 0
140 1 29.2559 5.45139 0
141 1 26.166 21.7016 0
142 1 5.00439 5.93412 0
143 1 21.6214 2.96034 0
144 1 0.0906316 25.4022 0
145 1 11.4037 15.4302 0
146 1 29.7277 12.2861 0
147 1 1.93342 3.97682 0
148 1 12.5663 22.0366 0
149 1 5.31625 1.98909 0
150 1 0.181457 15.6217 0
151 1 14.3618 17.1784 0
152 1 5.6331 16.1205 0
153 1 20.1566 7.65693 0
154 1 12.211 2.62669 0
155 1 20.669 3.06386 0
156 1 23.7397 6.4036 0
157 1 15.4146 12.4132 0
158 1 18.0927 12.5169 0
159 1 15.3278 14.4904 0
160 1 24.078 28.9828 0
161 1 18.7391 15.435 0
162 1 21.8058 19.9739 0
163 1 29.4284 16.0049 0
164 1 22.3233 0.0510822 0
165 1 7.31637 18.6428 0
166 1 10.1702 6.10498 0
167 1 27.374 15.7976 0
168 1 18.6451 24.6793 0
169 1 2.56227 9.92891 0
170 1 28.6157 24.7235 0
171 1 9.41659 19.8708 0
172 1 0.280206 28.4261 0
173 1 11.5284 9.63033 0
174 1 15.182 3.7458 0
175 1 18.5608 13.5243 0
176 1 25.7434 6.74285 0
177 1 19.9242 13.7248 0
178 1 6.0555 17.8679 0
179 1 26.5628 19.2157 0
180 1 3.72921 19.0088 0
181 1 1.74304 21.624 0
182 1 7.76915 10.0794 0
183 1 26.3253 9.95621 0
184 1 23.5242 0.49702 0
185 1 15.7157 10.3783 0
186 1 22.1406 28.0087 0
187 1 2.35447 22.4488 0
188 1 25.0893 28.0702 0
189 1 2.21076 26.4752 0
190 1 24.4696 17.6791 0
191 1 13.553 7.86411 0
192 1 10.0106 4.24505 0
193 1 21.8457 12.2137 0
194 1 25.5443 3.35275 0
ITEM: TIMESTEP
1050
ITEM: NUMBER OF ATOMS
194
ITEM: BOX BOUNDS pp pp pp
0.0000000000000000e+00 3.0000000000000000e+01
0.0000000000000000e+00 3.0000000000000000e+01
-5.0000000000000000e-01 5.0000000000000000e-01
ITEM: ATOMS id type x y z
1 1 22.9521 9.80713 0
2 1 26.1487 12.4487 0
3 1 18.6346 2.21314 0
4 1 7.55198 16.3038 0
5 1 1.23542 28.098 0
6 1 16.9131 2.3019 0
7 1 10.1068 23.9188 0
8 1 23.4973 17.0132 0
9 1 16.3664 26.8993 0
10 1 17.7938 3.04324 0
11 1 27.6544 9.24328 0
12 1 6.31563 4.01601 0
13 1 17.9475 28.6445 0
14 1 2.72705 3.49794 0
15 1 21.2702 5.03563 0
16 1 10.6061 5.28317 0
17 1 2.96465 1.3571 0
18 1 22.7813 29.4193 0
19 1 19.5114 27.2525 0
20 1 3.57403 9.79945 0
21 1 8.1403 26.1777 0
22 1 16.8956 7.4343 0
23 1 1.14962 12.0571 0
24 1 27.7305 8.37696 0
25 1 27.0407 7.63498 0
26 1 11.247 27.8233 0
27 1 5.46319 12.7605 0
28 1 24.7323 4.02996 0
29 1 18.9236 4.04332 0
30 1 16.749 1.31528 0
31 1 7.58522 25.4289 0
32 1 29.0893 26.7878 0
33 1 18.4271 18.26 0
34 1 0.440748 19.2981 0
35 1 11.7729 3.51047 0
36 1 28.5232 13.6299 0
37 1 24.5428 14.8626 0
38 1 16.852 11.9635 0
39 1 0.171665 22.3617 0
40 1 11.3365 4.53261 0
41 1 27.7793 27.1552 0
42 1 1.9408 10.2479 0
43 1 5.51315 18.7462 0
44 1 10.8846 29.5902 0
45 1 18.3897 29.5914 0
46 1 6.54754 2.45083 0
47 1 15.026 19.2585 0
48 1 12.1913 1.17054 0
49 1 26.0779 4.99016 0
50 1 3.40922 27.5059 0
51 1 19.4527 18.6218 0
52 1 13.3164 23.1618 0
53 1 1.06353 16.8195 0
54 1 20.8171 24.7606 0
55 1 25.2603 17.1677 0
56 1 0.379014 9.05808 0
57 1 12.3947 18.7292 0
58 1 9.26522 5.3534 0
59 1 12.8952 13.2737 0
60 1 29.6429 0.36242 0
61 1 21.4888 16.354 0
62 1 23.0372 5.80664 0
63 1 28.6578 29.79 0
64 1 13.4832 16.6461 0
65 1 27.203 22.6493 0
66 1 7.73177 6.69686 0
67 1 21.1993 23.2685 0
68 1 11.2761 21.0952 0
69 1 16.0608 2.58373 0
70 1 6.77744 17.1576 0
71 1 2.41417 0.300643 0
72 1 13.8629 26.7081 0
73 1 13.2402 24.7365 0
74 1 20.3218 15.1242 0
75 1 11.3057 24.3281 0
76 1 15.9029 0.691344 0
77 1 12.5504 27.6418 0
78 1 5.66541 10.98 0
79 1 13.9196 14.8763 0
80 1 8.01743 24.171 0
81 1 25.2364 26.8794 0
82 1 27.7707 24.6851 0
83 1 11.0782 22.299 0
84 1 26.1088 7.52855 0
85 1 7.70156 2.88905 0
86 1 21.6426 17.7192 0
87 1 17.246 24.4871 0
88 1 3.8348 23.4461 0
89 1 27.6911 19.9226 0
90 1 13.8675 0.770836 0
91 1 4.52896 1.60303 0
92 1 21.9498 15.4002 0
93 1 5.46198 8.20305 0
94 1 29.3703 26.0303 0
95 1 24.0354 18.5172 0
96 1 10.4941 0.801376 0
97 1 1.83656 2.42422 0
98 1 10.4233 1.63524 0
99 1 18.0061 8.25281 0
100 1 20.27 21.1339 0
101 1 7.34202 21.1876 0
102 1 17.9923 20.642 0
103 1 20.1779 11.1168 0
104 1 6.31333 27.1194 0
105 1 19.254 16.0289 0
106 1 6.36528 12.2619 0
107 1 11.9788 28.6259 0
108 1 9.79218 9.88318 0
109 1 15.1517 23.0636 0
110 1 1.01395 9.79679 0
111 1 6.15731 6.65187 0
112 1 7.66509 5.5885 0
113 1 14.3188 22.1911 0
114 1 4.96272 4.45595 0
115 1 23.7318 12.9902 0
116 1 4.67514 28.1695 0
117 1 23.3399 21.3034 0
118 1 12.7629 11.1571 0
119 1 28.1449 2.99872 0
120 1 14.9568 5.62282 0
121 1 24.7326 21.1724 0
122 1 5.30741 19.6145 0
123 1 17.4004 19.9395 0
124 1 13.8211 11.3053 0
125 1 29.901 10.628 0
126 1 1.6059 14.1564 0
127 1 9.50716 2.28596 0
128 1 29.7545 18.4942 0
129 1 8.25301 13.858 0
130 1 9.46042 7.1965 0
131 1 20.9765 29.6697 0
132 1 27.19 21.7894 0
133 1 6.40118 1.51164 0
134 1 10.7014 3.04002 0
135 1 8.33795 0.258243 0
136 1 22.4296 21.8028 0
137 1 22.5954 10.9119 0
138 1 3.83595 17.9874 0
139 1 6.59262 26.2094 0
140 1 29.3291 5.35838 0
141 1 25.9307 21.4488 0
142 1 4.83149 6.0598 0
143 1 21.7114 3.25587 0
144 1 0.343218 25.7925 0
145 1 11.7292 15.8601 0
146 1 29.7766 12.4735 0
147 1 1.75121 3.91911 0
148 1 12.6321 21.8182 0
149 1 5.56485 1.69069 0
150 1 0.408385 15.7115 0
151 1 14.806 16.7886 0
152 1 5.5313 16.2103 0
153 1 19.862 7.95995 0
154 1 12.4473 2.52941 0
155 1 20.4644 3.12589 0
156 1 23.5703 6.7079 0
157 1 15.5716 12.3957 0
158 1 18.2155 12.2631 0
159 1 14.8813 14.3562 0
160 1 23.5911 29.0382 0
161 1 18.5398 14.8723 0
162 1 21.6745 19.9884 0
163 1 29.372 16.275 0
164 1 22.2691 0.163146 0
165 1 7.09562 18.6969 0
166 1 9.72201 6.23963 0
167 1 26.9971 15.6366 0
168 1 18.6541 24.6762 0
169 1 2.70366 9.73778 0
170 1 28.6162 24.856 0
171 1 9.20879 20.4455 0
172 1 0.330238 28.6117 0
173 1 11.1824 9.71313 0
174 1 15.0709 4.02199 0
175 1 18.6102 13.7749 0
176 1 25.8824 6.62003 0
177 1 19.7 13.5119 0
178 1 6.02327 17.6706 0
179 1 26.7195 19.189 0
180 1 3.46387 18.9024 0
181 1 1.78902 21.4812 0
182 1 8.2042 10.2745 0
183 1 26.2634 9.90529 0
184 1 23.4777 0.367149 0
185 1 15.6022 10.5323 0
186 1 22.0595 27.8435 0
187 1 2.59781 21.9769 0
188 1 25.234 28.1639 0
189 1 2.00263 26.6432 0
190 1 24.565 17.7416 0
191 1 13.4185 7.49645 0
192 1 9.98273 4.27624 0
193 1 21.6201 12.6382 0
194 1 25.4428 3.56486 0
ITEM: TIMESTEP
1065
ITEM: NUMBER OF ATOMS
194
ITEM: BOX BOUNDS pp pp pp
0.0000000000000000e+00 3.0000000000000000e+01
0.0000000000000000e+00 3.0000000000000000e+01
-5.0000000000000000e-01 5.0000000000000000e-01
ITEM: ATOMS id type x y z
1 1 22.9522 9.59172 0
2 1 25.8769 12.3187 0
3 1 18.51 1.97313 0
4 1 7.91757 16.5898 0
5 1 1.36068 28.0029 0
6 1 17.1002 1.89618 0
7 1 9.85624 23.8659 0
8 1 23.5134 17.3243 0
9 1 16.9671 27.292 0
10 1 17.7824 3.1977 0
11 1 27.5707 9.46349 0
12 1 6.0608 4.20778 0
13 1 17.8323 28.7872 0
14 1 2.53939 3.25855 0
15 1 21.1625 4.81842 0
16 1 10.4369 5.54256 0
17 1 3.37924 1.3786 0
18 1 22.6207 29.6901 0
19 1 19.3496 27.5975 0
20 1 3.75003 10.3134 0
21 1 7.74735 26.533 0
22 1 17.1548 7.49873 0
23 1 1.04397 12.3279 0
24 1 27.7409 8.39663 0
25 1 27.16 7.72275 0
26 1 11.1954 27.6612 0
27 1 5.42316 12.9752 0
28 1 24.4445 4.08915 0
29 1 18.703 4.11928 0
30 1 16.8429 0.891901 0
31 1 7.67643 25.4107 0
32 1 29.4578 27.0279 0
33 1 18.4615 18.4321 0
34 1 0.480347 19.1248 0
35 1 11.954 3.30109 0
36 1 28.7563 13.2353 0
37 1 24.3378 14.8406 0
38 1 16.4641 11.6156 0
39 1 0.119075 22.1003 0
40 1 11.255 4.99997 0
41 1 28.0033 27.5516 0
42 1 2.21895 10.195 0
43 1 5.71913 18.8143 0
44 1 10.2498 29.5737 0
45 1 19.1683 29.5828 0
46 1 6.86053 2.58639 0
47 1 15.2908 19.1562 0
48 1 11.9918 0.804315 0
49 1 26.4091 5.07389 0
50 1 3.39302 27.1184 0
51 1 19.3605 18.4921 0
52 1 13.4728 23.2892 0
53 1 1.5649 16.6917 0
54 1 20.8813 24.7335 0
55 1 25.4755 17.3943 0
56 1 -0.145675 9.30923 0
57 1 12.5042 18.4948 0
58 1 8.9991 5.11012 0
59 1 12.6437 13.0726 0
60 1 29.5171 0.138445 0
61 1 21.6833 16.6962 0
62 1 23.1822 5.3499 0
63 1 28.5869 29.7044 0
64 1 13.6245 16.755 0
65 1 27.1922 22.8263 0
66 1 7.45084 7.11204 0
67 1 21.2147 23.5147 0
68 1 11.3524 20.654 0
69 1 15.9111 2.42838 0
70 1 6.92434 17.1463 0
71 1 2.20626 0.101735 0
72 1 14.0595 26.7451 0
73 1 13.1924 24.8283 0
74 1 20.2569 15.067 0
75 1 10.9301 24.4276 0
76 1 16.0093 0.508355 0
77 1 12.8176 27.6243 0
78 1 5.9949 11.2148 0
79 1 14.0317 15.0105 0
80 1 7.91939 24.4286 0
81 1 25.8737 27.1042 0
82 1 27.7228 24.8767 0
83 1 11.1476 21.9913 0
84 1 26.1705 7.32088 0
85 1 7.74838 2.72479 0
86 1 21.5527 17.6741 0
87 1 17.9099 24.4421 0
88 1 3.57677 23.746 0
89 1 28.1865 19.9201 0
90 1 13.9268 0.167302 0
91 1 4.53663 1.75712 0
92 1 22.3683 15.3507 0
93 1 5.08076 8.36757 0
94 1 29.3213 25.6612 0
95 1 24.0538 18.65 0
96 1 10.2505 0.670068 0
97 1 1.33144 2.30241 0
98 1 10.4565 1.91239 0
99 1 18.2688 8.36557 0
100 1 20.3821 21.2971 0
101 1 7.10058 21.4173 0
102 1 18.1637 20.1807 0
103 1 20.1104 11.2956 0
104 1 6.29906 27.6743 0
105 1 19.1592 16.0633 0
106 1 6.25468 12.3774 0
107 1 11.6415 28.643 0
108 1 9.72603 9.46012 0
109 1 15.2125 23.3718 0
110 1 1.14987 9.4452 0
111 1 6.12425 6.27202 0
112 1 7.44509 5.64505 0
113 1 13.8423 22.4719 0
114 1 4.87577 4.36091 0
115 1 23.6286 12.6636 0
116 1 4.38735 28.2784 0
117 1 23.3148 21.0012 0
118 1 13.0503 11.3233 0
119 1 28.4387 3.07798 0
120 1 15.3082 5.01351 0
121 1 24.8435 21.2873 0
122 1 5.14047 19.7705 0
123 1 17.233 19.5951 0
124 1 14.0873 11.0793 0
125 1 30.038 10.0997 0
126 1 1.67653 14.2857 0
127 1 9.63458 2.44663 0
128 1 29.3858 18.362 0
129 1 8.48345 13.7546 0
130 1 9.31815 7.22653 0
131 1 20.7596 29.8611 0
132 1 27.2999 21.5639 0
133 1 6.77645 1.58268 0
134 1 10.2902 3.11475 0
135 1 8.10464 0.0892229 0
136 1 22.1614 21.9793 0
137 1 22.6019 10.7496 0
138 1 3.40316 17.8368 0
139 1 6.81937 26.6223 0
140 1 29.4022 5.26537 0
141 1 25.7111 21.1965 0
142 1 4.6615 6.18497 0
143 1 21.8009 3.55173 0
144 1 1.04709 25.9753 0
145 1 12.0553 16.2903 0
146 1 29.8276 12.6598 0
147 1 1.55562 3.86398 0
148 1 12.6968 21.6021 0
149 1 5.56238 1.46664 0
150 1 0.706454 15.7696 0
151 1 15.2459 16.3977 0
152 1 5.43226 16.3035 0
153 1 19.5665 8.26308 0
154 1 12.6799 2.43115 0
155 1 20.2592 3.18907 0
156 1 23.6437 7.23118 0
157 1 15.7312 12.3766 0
158 1 18.3416 12.0124 0
159 1 14.4723 14.1831 0
160 1 23.3759 28.9379 0
161 1 18.2415 14.6428 0
162 1 21.5431 20.0037 0
163 1 29.2483 16.5814 0
164 1 22.0861 0.468201 0
165 1 6.86999 18.7476 0
166 1 9.4606 6.11446 0
167 1 26.6202 15.4757 0
168 1 18.6806 24.6778 0
169 1 2.93292 9.27468 0
170 1 28.8878 25.0132 0
171 1 9.00084 21.0204 0
172 1 0.324304 28.822 0
173 1 10.833 9.79638 0
174 1 14.9563 4.28516 0
175 1 18.7392 13.6877 0
176 1 25.987 6.34407 0
177 1 19.4872 13.2936 0
178 1 5.86312 17.5655 0
179 1 26.8757 19.1611 0
180 1 3.17892 18.8479 0
181 1 1.73952 21.2684 0
182 1 8.64072 10.4691 0
183 1 26.2039 9.85297 0
184 1 23.4304 0.235084 0
185 1 15.4886 10.6879 0
186 1 21.9793 27.6801 0
187 1 2.93626 21.5758 0
188 1 25.3781 28.2533 0
189 1 1.79391 26.8127 0
190 1 24.5225 17.8316 0
191 1 13.2841 7.12871 0
192 1 9.95957 4.31236 0
193 1 21.3946 13.0621 0
194 1 25.6532 3.56176 0
ITEM: TIMESTEP
1080
ITEM: NUMBER OF ATOMS
194
ITEM: BOX BOUNDS pp pp pp
0.0000000000000000e+00 3.0000000000000000e+01
0.0000000000000000e+00 3.0000000000000000e+01
-5.0000000000000000e-01 5.0000000000000000e-01
ITEM: ATOMS id type x y z
1 1 22.9509 9.38103 0
2 1 25.6049 12.1886 0
3 1 18.38 1.7359 0
4 1 8.28077 16.877 0
5 1 1.48265 27.9143 0
6 1 17.3015 1.52008 0
7 1 9.60999 23.8153 0
8 1 23.5222 17.6355 0
9 1 17.5686 27.6861 0
10 1 17.7742 3.34962 0
11 1 27.4745 9.7722 0
12 1 5.80491 4.40012 0
13 1 17.7186 28.9297 0
14 1 2.34863 3.01856 0
15 1 21.0564 4.59776 0
16 1 10.2267 5.82941 0
17 1 3.78732 1.39557 0
18 1 22.3786 29.8959 0
19 1 19.1872 27.9433 0
20 1 3.94007 10.8309 0
21 1 7.8492 26.8967 0
22 1 17.4169 7.56541 0
23 1 0.933979 12.6001 0
24 1 27.9071 8.49846 0
25 1 27.1546 7.64779 0
26 1 10.9488 27.1919 0
27 1 5.35844 13.2068 0
28 1 24.1466 4.15533 0
29 1 18.4799 4.19139 0
30 1 17.0691 0.508255 0
31 1 7.72911 25.4878 0
32 1 29.8171 27.3021 0
33 1 18.3106 18.5897 0
34 1 0.516848 18.9493 0
35 1 12.1329 3.09158 0
36 1 28.9778 12.8419 0
37 1 24.1323 14.8188 0
38 1 16.093 11.2637 0
39 1 0.0671659 21.8386 0
40 1 11.2205 5.43087 0
41 1 28.2294 27.9473 0
42 1 2.35435 10.264 0
43 1 5.86524 18.8449 0
44 1 9.61474 29.5501 0
45 1 19.9327 29.5647 0
46 1 6.95343 2.76029 0
47 1 15.5561 19.0541 0
48 1 11.7913 0.438835 0
49 1 26.7384 5.15977 0
50 1 3.37666 26.7323 0
51 1 19.4523 18.3794 0
52 1 13.5545 23.6528 0
53 1 2.06278 16.5601 0
54 1 20.9457 24.7041 0
55 1 25.7933 17.5554 0
56 1 29.0875 8.77327 0
57 1 12.6137 18.2598 0
58 1 8.73531 4.85887 0
59 1 12.3927 12.8708 0
60 1 29.4234 29.9259 0
61 1 21.9157 16.9095 0
62 1 23.328 4.89295 0
63 1 28.4855 29.6049 0
64 1 13.7658 16.8627 0
65 1 27.1813 23.0153 0
66 1 7.16915 7.52319 0
67 1 21.2299 23.7622 0
68 1 11.4292 20.2179 0
69 1 15.7594 2.27289 0
70 1 7.086 17.127 0
71 1 1.99901 29.9038 0
72 1 14.254 26.7833 0
73 1 13.1449 24.9181 0
74 1 20.1897 15.011 0
75 1 10.5501 24.5247 0
76 1 15.977 0.259498 0
77 1 13.0831 27.6073 0
78 1 6.32506 11.4516 0
79 1 14.0683 15.2516 0
80 1 7.84577 24.5623 0
81 1 26.5093 27.3338 0
82 1 27.6561 25.0644 0
83 1 11.2193 21.6791 0
84 1 26.2315 7.20555 0
85 1 8.0194 2.57985 0
86 1 21.4268 17.7556 0
87 1 18.0525 24.228 0
88 1 3.31868 24.0458 0
89 1 28.6796 19.9164 0
90 1 13.986 29.5639 0
91 1 4.5388 1.917 0
92 1 22.7858 15.3036 0
93 1 4.69926 8.53191 0
94 1 29.655 25.8183 0
95 1 24.0121 18.8807 0
96 1 10.0095 0.518051 0
97 1 0.828591 2.18369 0
98 1 10.5488 2.18688 0
99 1 18.4942 8.47391 0
100 1 20.4954 21.4597 0
101 1 6.85963 21.6469 0
102 1 18.3567 19.7369 0
103 1 20.0423 11.4753 0
104 1 6.19946 28.4488 0
105 1 19.0658 16.0948 0
106 1 6.16801 12.4741 0
107 1 11.5015 28.967 0
108 1 9.66106 9.03912 0
109 1 15.2708 23.6789 0
110 1 1.45134 9.18725 0
111 1 6.09263 5.89118 0
112 1 7.22374 5.70523 0
113 1 13.4399 22.5174 0
114 1 4.79064 4.26611 0
115 1 23.5253 12.3369 0
116 1 4.09835 28.3856 0
117 1 23.2897 20.7007 0
118 1 13.3263 11.4916 0
119 1 28.7325 3.15734 0
120 1 15.8982 4.83056 0
121 1 24.705 21.4344 0
122 1 4.9599 19.9627 0
123 1 17.0451 19.2305 0
124 1 14.3673 10.8514 0
125 1 0.256071 10.2677 0
126 1 1.74647 14.4154 0
127 1 9.54933 2.45082 0
128 1 29.0199 18.2311 0
129 1 8.71388 13.6511 0
130 1 9.12135 7.52556 0
131 1 20.5585 0.0616303 0
132 1 27.4081 21.3253 0
133 1 7.17106 1.59278 0
134 1 10.0332 3.38006 0
135 1 7.8715 29.9205 0
136 1 21.8941 22.1544 0
137 1 22.6099 10.5828 0
138 1 2.97805 17.6573 0
139 1 6.65076 26.8358 0
140 1 29.4753 5.17223 0
141 1 25.7407 20.9121 0
142 1 4.49451 6.30972 0
143 1 21.8868 3.85024 0
144 1 1.72612 26.0839 0
145 1 12.3831 16.721 0
146 1 29.8946 12.8436 0
147 1 1.36129 3.80581 0
148 1 12.7613 21.3882 0
149 1 5.54762 1.24447 0
150 1 1.00712 15.8317 0
151 1 15.6837 16.0065 0
152 1 5.33569 16.4015 0
153 1 19.3052 8.56839 0
154 1 12.9114 2.33252 0
155 1 20.0555 3.25354 0
156 1 23.7168 7.75356 0
157 1 15.8834 12.3664 0
158 1 18.4686 11.7633 0
159 1 14.1388 13.9043 0
160 1 23.2677 28.7668 0
161 1 17.8382 14.7647 0
162 1 21.4114 20.0202 0
163 1 29.1263 16.888 0
164 1 21.8281 0.880409 0
165 1 6.71701 18.7905 0
166 1 9.24315 5.72657 0
167 1 26.2431 15.3149 0
168 1 19.2286 24.8486 0
169 1 3.28618 8.68348 0
170 1 28.8052 24.615 0
171 1 8.79262 21.5955 0
172 1 0.319502 29.0319 0
173 1 10.4804 9.87907 0
174 1 14.6031 4.12164 0
175 1 18.6017 13.4462 0
176 1 26.0717 5.96573 0
177 1 19.6471 12.8776 0
178 1 5.68847 17.4712 0
179 1 27.0339 19.1346 0
180 1 2.88642 18.8222 0
181 1 1.68819 21.0546 0
182 1 9.07926 10.662 0
183 1 26.1479 9.79951 0
184 1 23.4286 0.129778 0
185 1 15.3632 10.8394 0
186 1 21.8995 27.5176 0
187 1 3.27591 21.1762 0
188 1 25.5239 28.3379 0
189 1 1.60965 27.0526 0
190 1 24.4439 17.889 0
191 1 13.1497 6.76096 0
192 1 9.93763 4.35441 0
193 1 21.1686 13.4861 0
194 1 25.8737 3.55392 0
ITEM: TIMESTEP
1095
ITEM: NUMBER OF ATOMS
194
ITEM: BOX BOUNDS pp pp pp
0.0000000000000000e+00 3.0000000000000000e+01
0.0000000000000000e+00 3.0000000000000000e+01
-5.0000000000000000e-01 5.0000000000000000e-01
ITEM: ATOMS id type x y z
1 1 22.9487 9.17443 0
2 1 25.3327 12.0584 0
3 1 18.2866 1.51199 0
4 1 8.63926 17.1652 0
5 1 1.56472 28.2013 0
6 1 17.4687 1.15484 0
7 1 9.36662 23.7673 0
8 1 23.4411 17.9289 0
9 1 18.1702 28.0835 0
10 1 17.7564 3.48631 0
11 1 27.3753 10.0765 0
12 1 5.58342 4.60214 0
13 1 17.6046 29.07 0
14 1 2.15316 2.78095 0
15 1 20.9454 4.37754 0
16 1 10.0443 6.12058 0
17 1 4.06318 1.3081 0
18 1 22.1244 30.0837 0
19 1 19.0248 28.2906 0
20 1 4.12882 11.3475 0
21 1 8.16948 27.2499 0
22 1 17.682 7.63474 0
23 1 0.887576 12.8585 0
24 1 27.6668 8.65255 0
25 1 27.1631 7.57045 0
26 1 10.703 26.7239 0
27 1 5.28833 13.4425 0
28 1 24.0748 4.04264 0
29 1 18.2671 4.27646 0
30 1 17.3079 0.107488 0
31 1 7.74975 25.7669 0
32 1 30.1773 27.5751 0
33 1 18.1012 18.6361 0
34 1 0.551773 18.7734 0
35 1 12.3062 2.88609 0
36 1 29.0713 12.4449 0
37 1 23.9301 14.7947 0
38 1 16.1253 11.1125 0
39 1 0.015927 21.5764 0
40 1 11.1992 5.85364 0
41 1 28.4563 28.3442 0
42 1 2.48893 10.3296 0
43 1 5.65022 18.8967 0
44 1 8.97408 29.5116 0
45 1 20.2924 29.1903 0
46 1 6.9681 2.93321 0
47 1 15.824 18.9523 0
48 1 11.5917 0.0797071 0
49 1 27.0874 5.22851 0
50 1 3.35839 26.3467 0
51 1 19.5599 18.2673 0
52 1 13.62 24.0994 0
53 1 2.55792 16.4271 0
54 1 20.9722 24.7901 0
55 1 26.1077 17.7176 0
56 1 28.7383 8.20155 0
57 1 12.7236 18.0255 0
58 1 8.45102 4.56435 0
59 1 12.1427 12.6683 0
60 1 29.3829 29.7284 0
61 1 22.2013 16.9937 0
62 1 23.2474 4.61399 0
63 1 28.3336 29.4856 0
64 1 13.9033 16.9691 0
65 1 27.1708 23.2031 0
66 1 6.88762 7.933 0
67 1 21.2818 23.8936 0
68 1 11.5063 19.7851 0
69 1 15.6091 2.1165 0
70 1 7.2481 17.109 0
71 1 1.79118 29.7054 0
72 1 14.4456 26.8232 0
73 1 13.0988 25.0045 0
74 1 20.1213 14.9552 0
75 1 10.1667 24.6193 0
76 1 15.9282 0.004958 0
77 1 13.3509 27.5889 0
78 1 6.65948 11.6686 0
79 1 14.104 15.4952 0
80 1 7.80425 24.4985 0
81 1 27.1433 27.5664 0
82 1 27.5939 25.2503 0
83 1 11.2934 21.3637 0
84 1 26.2644 7.07387 0
85 1 8.36807 2.43175 0
86 1 21.2489 17.9661 0
87 1 18.1377 23.9926 0
88 1 3.06055 24.3456 0
89 1 29.1722 19.9117 0
90 1 14.0451 28.9604 0
91 1 4.67671 2.17922 0
92 1 23.1998 15.2593 0
93 1 4.32445 8.70059 0
94 1 30.0048 26.0014 0
95 1 23.9594 19.1262 0
96 1 9.77479 0.382479 0
97 1 0.326911 2.06673 0
98 1 10.6779 2.44772 0
99 1 18.2612 8.52652 0
100 1 20.6114 21.6226 0
101 1 6.61918 21.8766 0
102 1 18.5862 19.4035 0
103 1 19.9746 11.6396 0
104 1 6.10051 29.2218 0
105 1 18.9733 16.1244 0
106 1 6.08237 12.5864 0
107 1 11.3591 29.2838 0
108 1 9.59703 8.61998 0
109 1 15.3275 23.9858 0
110 1 1.75399 8.93307 0
111 1 6.05365 5.50733 0
112 1 7.00881 5.76666 0
113 1 13.0514 22.4794 0
114 1 4.67234 4.1645 0
115 1 23.4221 12.0099 0
116 1 3.80919 28.4919 0
117 1 23.2659 20.4006 0
118 1 13.6049 11.6587 0
119 1 29.0265 3.23687 0
120 1 16.5188 4.68905 0
121 1 24.5238 21.5907 0
122 1 4.78115 20.1522 0
123 1 16.861 18.8656 0
124 1 14.221 10.5783 0
125 1 0.476961 10.4383 0
126 1 1.81536 14.5466 0
127 1 9.34038 2.35278 0
128 1 28.6548 18.1003 0
129 1 8.94432 13.5477 0
130 1 8.92519 7.82478 0
131 1 20.7651 0.619031 0
132 1 27.5154 21.0873 0
133 1 7.56658 1.60619 0
134 1 9.86926 3.59933 0
135 1 7.63913 29.7522 0
136 1 21.6246 22.3288 0
137 1 22.6195 10.4111 0
138 1 2.55152 17.4779 0
139 1 6.26349 27.0568 0
140 1 29.5484 5.07876 0
141 1 25.8125 20.6178 0
142 1 4.32912 6.43393 0
143 1 21.9775 4.14763 0
144 1 2.38504 26.0609 0
145 1 12.7151 17.1509 0
146 1 30.0264 13.0453 0
147 1 1.17045 3.74343 0
148 1 12.8254 21.1782 0
149 1 5.53101 1.02517 0
150 1 1.31258 15.8952 0
151 1 16.1206 15.615 0
152 1 5.23672 16.4905 0
153 1 19.4994 8.92678 0
154 1 13.1473 2.2295 0
155 1 19.8523 3.31952 0
156 1 23.7893 8.27697 0
157 1 16.0321 12.3591 0
158 1 18.5986 11.5162 0
159 1 13.8062 13.6247 0
160 1 23.1577 28.6018 0
161 1 17.4367 14.8851 0
162 1 21.2794 20.0378 0
163 1 29.0049 17.1964 0
164 1 21.5634 1.29827 0
165 1 6.92203 18.8086 0
166 1 9.00809 5.37958 0
167 1 25.8657 15.1542 0
168 1 19.8357 25.0402 0
169 1 3.63171 8.08932 0
170 1 28.7023 24.1951 0
171 1 8.58404 22.1707 0
172 1 0.313488 29.2426 0
173 1 10.1238 9.96032 0
174 1 14.2196 3.91629 0
175 1 18.3866 13.2465 0
176 1 26.1368 5.60692 0
177 1 19.8812 12.4365 0
178 1 5.52121 17.3903 0
179 1 27.1928 19.1085 0
180 1 2.5938 18.7948 0
181 1 1.63817 20.8412 0
182 1 9.52005 10.8526 0
183 1 26.0968 9.74583 0
184 1 23.4435 0.0284044 0
185 1 15.2612 10.8349 0
186 1 21.8203 27.3556 0
187 1 3.61393 20.776 0
188 1 25.6719 28.4199 0
189 1 1.4838 27.0504 0
190 1 24.4684 17.9484 0
191 1 13.0152 6.39315 0
192 1 9.90417 4.56505 0
193 1 20.9407 13.9102 0
194 1 26.0935 3.54722 0
ITEM: TIMESTEP
1110
ITEM: NUMBER OF ATOMS
194
ITEM: BOX BOUNDS pp pp pp
0.0000000000000000e+00 3.0000000000000000e+01
0.0000000000000000e+00 3.0000000000000000e+01
-5.0000000000000000e-01 5.0000000000000000e-01
ITEM: ATOMS id type x y z
1 1 22.9368 8.97552 0
2 1 25.0599 11.9281 0
3 1 18.3804 1.36763 0
4 1 8.99385 17.4535 0
5 1 1.63755 28.5982 0
6 1 17.4495 0.74442 0
7 1 9.12432 23.7216 0
8 1 23.3139 18.2203 0
9 1 18.2175 28.3256 0
10 1 17.6766 3.52597 0
11 1 27.2723 10.3766 0
12 1 5.28705 4.68233 0
13 1 17.5317 28.954 0
14 1 1.95439 2.54592 0
15 1 20.822 4.15969 0
16 1 9.86448 6.40778 0
17 1 4.29828 1.17709 0
18 1 21.87 0.275562 0
19 1 19.4178 28.7958 0
20 1 4.31729 11.864 0
21 1 8.48827 27.6009 0
22 1 17.9328 7.66316 0
23 1 1.08617 13.0637 0
24 1 26.965 8.85552 0
25 1 27.2006 7.5119 0
26 1 10.4571 26.2556 0
27 1 5.22049 13.6756 0
28 1 24.3065 3.69594 0
29 1 18.115 4.45908 0
30 1 17.5009 29.9278 0
31 1 7.77032 26.0491 0
32 1 0.542243 27.8473 0
33 1 17.7688 18.4095 0
34 1 0.586022 18.5978 0
35 1 12.4697 2.68732 0
36 1 29.143 12.0437 0
37 1 24.0515 14.5338 0
38 1 16.4019 11.0571 0
39 1 29.9652 21.3131 0
40 1 11.1742 6.27659 0
41 1 28.7035 28.6971 0
42 1 2.62275 10.3936 0
43 1 5.42095 18.9485 0
44 1 8.3343 29.4743 0
45 1 20.6164 28.7774 0
46 1 6.98672 3.10252 0
47 1 15.9664 18.8839 0
48 1 11.5612 0.25784 0
49 1 27.4644 5.28104 0
50 1 3.76021 26.0481 0
51 1 19.6644 18.1576 0
52 1 13.7175 24.5044 0
53 1 3.04933 16.2855 0
54 1 21.1234 24.9692 0
55 1 26.4212 17.881 0
56 1 28.8461 7.5795 0
57 1 12.8107 18.2924 0
58 1 8.13673 4.21922 0
59 1 11.894 12.4654 0
60 1 29.3319 29.5408 0
61 1 22.4872 17.0804 0
62 1 22.879 4.57205 0
63 1 28.1485 29.4065 0
64 1 14.0393 17.0739 0
65 1 27.1612 23.3915 0
66 1 6.60643 8.34246 0
67 1 21.382 23.8776 0
68 1 11.5838 19.3542 0
69 1 15.459 1.95982 0
70 1 7.41235 17.0922 0
71 1 1.58073 29.5059 0
72 1 14.6333 26.8659 0
73 1 13.0216 25.1309 0
74 1 20.0481 14.9034 0
75 1 9.78043 24.7112 0
76 1 15.8839 29.751 0
77 1 13.6228 27.5687 0
78 1 6.99736 11.8763 0
79 1 14.1396 15.7409 0
80 1 7.76421 24.4335 0
81 1 27.7784 27.8012 0
82 1 27.5337 25.4345 0
83 1 11.3701 21.0463 0
84 1 26.2713 6.925 0
85 1 8.40986 2.32273 0
86 1 21.0716 18.1756 0
87 1 18.2235 23.7577 0
88 1 2.80227 24.6469 0
89 1 29.6651 19.9067 0
90 1 14.1042 28.3558 0
91 1 4.86019 2.48251 0
92 1 23.2906 15.4525 0
93 1 4.01536 8.92306 0
94 1 0.355684 26.1868 0
95 1 23.9056 19.3652 0
96 1 9.53927 0.246176 0
97 1 29.8252 1.95137 0
98 1 10.8025 2.71148 0
99 1 18.0084 8.61432 0
100 1 20.728 21.7837 0
101 1 6.37914 22.1062 0
102 1 18.9386 19.341 0
103 1 19.9599 11.2254 0
104 1 6.00281 29.9957 0
105 1 18.8816 16.1528 0
106 1 5.99078 12.7104 0
107 1 11.0463 29.0638 0
108 1 9.61828 8.25788 0
109 1 15.383 24.2928 0
110 1 2.05765 8.68087 0
111 1 6.08103 5.24707 0
112 1 6.84154 5.84238 0
113 1 12.6623 22.4383 0
114 1 4.51536 4.04653 0
115 1 23.3191 11.682 0
116 1 3.51977 28.5981 0
117 1 23.2435 20.0991 0
118 1 13.886 11.8224 0
119 1 29.3217 3.31616 0
120 1 17.1414 4.54601 0
121 1 24.3435 21.745 0
122 1 4.69107 20.3197 0
123 1 16.807 18.4667 0
124 1 13.7191 10.261 0
125 1 0.698537 10.6086 0
126 1 1.88293 14.6806 0
127 1 9.45112 2.23429 0
128 1 28.225 18.085 0
129 1 9.17476 13.4442 0
130 1 8.64499 8.06978 0
131 1 20.8787 1.07234 0
132 1 27.6219 20.8487 0
133 1 7.95075 1.60871 0
134 1 9.70624 3.63893 0
135 1 7.40608 29.584 0
136 1 21.3548 22.5058 0
137 1 22.631 10.2352 0
138 1 2.12439 17.3094 0
139 1 5.8775 27.2779 0
140 1 29.6216 4.98455 0
141 1 25.8837 20.3246 0
142 1 4.16405 6.55837 0
143 1 22.0633 4.43785 0
144 1 2.62146 25.9519 0
145 1 13.0718 17.0782 0
146 1 29.9352 13.3048 0
147 1 0.981778 3.67776 0
148 1 12.8879 20.9726 0
149 1 5.5103 0.80829 0
150 1 1.62337 15.9579 0
151 1 16.4209 15.2912 0
152 1 5.10186 16.4644 0
153 1 19.7278 9.29095 0
154 1 13.3923 2.12001 0
155 1 19.65 3.3875 0
156 1 23.8701 8.79786 0
157 1 16.1807 12.3455 0
158 1 18.7338 11.2713 0
159 1 13.4732 13.3452 0
160 1 23.0471 28.4401 0
161 1 17.1721 14.9374 0
162 1 21.1474 20.0562 0
163 1 28.9479 17.3908 0
164 1 21.4304 1.85233 0
165 1 7.13968 18.8245 0
166 1 8.8072 5.08188 0
167 1 25.4877 14.9934 0
168 1 20.2695 25.2837 0
169 1 3.91132 7.44088 0
170 1 28.5969 23.7766 0
171 1 8.37565 22.7471 0
172 1 0.332836 29.4434 0
173 1 9.77157 10.016 0
174 1 13.8359 3.71034 0
175 1 18.1729 13.0456 0
176 1 26.174 5.2672 0
177 1 20.0561 12.5742 0
178 1 5.39177 17.4275 0
179 1 27.3521 19.0816 0
180 1 2.30068 18.763 0
181 1 1.58782 20.6278 0
182 1 9.95503 11.0655 0
183 1 26.051 9.69274 0
184 1 23.4536 29.9242 0
185 1 15.2674 10.7898 0
186 1 21.7415 27.1943 0
187 1 3.8641 20.3955 0
188 1 25.821 28.5012 0
189 1 1.36256 26.9376 0
190 1 24.5389 18.0169 0
191 1 12.88 6.0252 0
192 1 9.86612 4.95336 0
193 1 20.716 14.3307 0
194 1 26.3133 3.54139 0
ITEM: TIMESTEP
1125
ITEM: NUMBER OF ATOMS
194
ITEM: BOX BOUNDS pp pp pp
0.0000000000000000e+00 3.0000000000000000e+01
0.0000000000000000e+00 3.0000000000000000e+01
-5.0000000000000000e-01 5.0000000000000000e-01
ITEM: ATOMS id type x y z
1 1 22.8556 8.79629 0
2 1 24.7861 11.7975 0
3 1 18.4964 1.23485 0
4 1 9.34661 17.7415 0
5 1 1.76852 28.6204 0
6 1 17.3648 0.830407 0
7 1 8.90805 23.6988 0
8 1 23.19 18.5136 0
9 1 18.3369 28.3593 0
10 1 17.5798 3.50701 0
11 1 27.1657 10.6728 0
12 1 4.88895 4.65455 0
13 1 17.2646 28.64 0
14 1 1.75363 2.31287 0
15 1 20.6998 3.94091 0
16 1 9.68804 6.69149 0
17 1 4.42921 1.06852 0
18 1 21.6126 0.471317 0
19 1 19.9797 29.3501 0
20 1 4.5065 12.3812 0
21 1 8.80644 27.9515 0
22 1 18.1666 7.59794 0
23 1 1.30144 13.2659 0
24 1 26.3272 8.96371 0
25 1 27.2438 7.45987 0
26 1 10.2104 25.786 0
27 1 5.15575 13.9041 0
28 1 24.537 3.35023 0
29 1 18.4562 4.70299 0
30 1 17.6919 29.5973 0
31 1 7.79131 26.3306 0
32 1 0.91282 28.1189 0
33 1 17.7041 18.192 0
34 1 0.620568 18.4234 0
35 1 12.6269 2.49331 0
36 1 29.2169 11.6446 0
37 1 24.2591 14.2049 0
38 1 16.6887 11.0098 0
39 1 29.9147 21.0461 0
40 1 11.145 6.69949 0
41 1 28.9232 28.693 0
42 1 2.75621 10.4567 0
43 1 5.19186 19 0
44 1 7.95027 29.4166 0
45 1 20.9369 28.3647 0
46 1 7.00839 3.27169 0
47 1 15.9071 18.8882 0
48 1 11.5638 0.53526 0
49 1 27.8383 5.33348 0
50 1 4.46018 25.8052 0
51 1 19.7699 18.0513 0
52 1 13.9033 24.8229 0
53 1 3.53651 16.1443 0
54 1 21.6852 25.0191 0
55 1 26.737 18.0466 0
56 1 28.952 6.9576 0
57 1 12.8854 18.7096 0
58 1 7.81699 3.86405 0
59 1 11.6461 12.2627 0
60 1 29.3672 29.5635 0
61 1 22.7748 17.17 0
62 1 22.954 4.59177 0
63 1 27.8666 29.4813 0
64 1 14.2765 17.1846 0
65 1 27.1542 23.5806 0
66 1 6.32559 8.75182 0
67 1 21.483 23.8541 0
68 1 11.663 18.9238 0
69 1 15.3086 1.803 0
70 1 7.57766 17.0768 0
71 1 1.30892 29.6777 0
72 1 14.8159 26.9134 0
73 1 12.8576 25.3437 0
74 1 19.7261 15.0427 0
75 1 9.39183 24.8005 0
76 1 15.8423 29.4972 0
77 1 13.6689 27.2043 0
78 1 7.33213 12.0867 0
79 1 14.174 15.9923 0
80 1 7.72712 24.3682 0
81 1 28.4124 28.0354 0
82 1 27.4738 25.618 0
83 1 11.4498 20.7281 0
84 1 26.2737 6.77182 0
85 1 8.38351 2.52198 0
86 1 20.8917 18.385 0
87 1 18.3093 23.5227 0
88 1 2.54446 24.9398 0
89 1 30.1595 19.9036 0
90 1 14.3941 28.0907 0
91 1 5.04243 2.78398 0
92 1 23.2975 15.7153 0
93 1 3.70856 9.1482 0
94 1 0.660707 26.3358 0
95 1 23.9857 19.4886 0
96 1 9.30113 0.108207 0
97 1 29.323 1.83878 0
98 1 10.9227 2.97627 0
99 1 17.7735 8.79614 0
100 1 20.7759 21.8497 0
101 1 6.13934 22.3359 0
102 1 19.2928 19.2755 0
103 1 19.9445 10.7445 0
104 1 6.27011 0.352457 0
105 1 18.7907 16.1802 0
106 1 5.89833 12.8356 0
107 1 10.6996 28.7449 0
108 1 9.75255 7.94866 0
109 1 15.4371 24.6 0
110 1 2.36227 8.4296 0
111 1 6.19449 5.0869 0
112 1 6.74056 5.97242 0
113 1 12.2731 22.3942 0
114 1 4.30873 3.87985 0
115 1 23.2163 11.3527 0
116 1 3.22938 28.7043 0
117 1 23.0862 19.9057 0
118 1 14.1672 11.985 0
119 1 29.6196 3.3945 0
120 1 17.2887 4.39966 0
121 1 24.1632 21.8987 0
122 1 5.10407 20.4051 0
123 1 16.688 17.9854 0
124 1 13.2191 9.94664 0
125 1 0.920496 10.7791 0
126 1 1.94936 14.8189 0
127 1 9.80252 2.10131 0
128 1 27.73 18.1543 0
129 1 9.40521 13.3407 0
130 1 8.25201 8.26182 0
131 1 20.8157 1.31051 0
132 1 27.7279 20.609 0
133 1 8.16481 1.32347 0
134 1 9.54289 3.67613 0
135 1 6.91743 29.4392 0
136 1 21.154 22.7812 0
137 1 22.6449 10.0554 0
138 1 1.69806 17.1398 0
139 1 5.49163 27.4988 0
140 1 29.6947 4.88866 0
141 1 25.9556 20.0314 0
142 1 4.12818 6.07186 0
143 1 21.7031 4.66416 0
144 1 2.55761 25.7966 0
145 1 13.3393 16.8449 0
146 1 29.8258 13.5656 0
147 1 0.792686 3.60989 0
148 1 12.9474 20.7696 0
149 1 5.23294 0.988922 0
150 1 1.93879 16.0195 0
151 1 15.982 15.3288 0
152 1 4.94631 16.372 0
153 1 19.9552 9.65593 0
154 1 13.6439 2.00805 0
155 1 19.4499 3.45774 0
156 1 24.0187 9.30456 0
157 1 16.3299 12.3264 0
158 1 18.8739 11.0273 0
159 1 13.1401 13.0636 0
160 1 22.9364 28.2802 0
161 1 17.6469 14.6281 0
162 1 21.0152 20.0748 0
163 1 28.9551 17.4984 0
164 1 21.4781 2.61684 0
165 1 7.35605 18.8392 0
166 1 8.60764 4.79396 0
167 1 25.1071 14.8317 0
168 1 20.2917 25.6601 0
169 1 4.05869 7.40064 0
170 1 28.4886 23.358 0
171 1 8.14099 23.3069 0
172 1 0.392584 29.6349 0
173 1 9.42277 10.0458 0
174 1 13.4509 3.50199 0
175 1 17.9595 12.844 0
176 1 26.2142 4.92803 0
177 1 20.2261 12.7783 0
178 1 5.28317 17.5334 0
179 1 27.5097 19.0566 0
180 1 2.00596 18.7285 0
181 1 1.53642 20.4141 0
182 1 10.3865 11.3033 0
183 1 25.9451 9.73389 0
184 1 23.4614 29.8182 0
185 1 15.2604 10.7422 0
186 1 21.6629 27.0337 0
187 1 3.61206 20.0949 0
188 1 25.9705 28.5824 0
189 1 1.28586 26.8668 0
190 1 24.6054 18.0886 0
191 1 12.744 5.65735 0
192 1 9.83348 5.34141 0
193 1 20.7389 14.5603 0
194 1 26.5328 3.53704 0
ITEM: TIMESTEP
1140
ITEM: NUMBER OF ATOMS
194
ITEM: BOX BOUNDS pp pp pp
0.0000000000000000e+00 3.0000000000000000e+01
0.0000000000000000e+00 3.0000000000000000e+01
-5.0000000000000000e-01 5.0000000000000000e-01
ITEM: ATOMS id type x y z
1 1 22.7687 8.62328 0
2 1 24.511 11.6664 0
3 1 18.608 1.09998 0
4 1 9.69866 18.0294 0
5 1 2.07836 28.5516 0
6 1 17.2755 0.985774 0
7 1 8.92551 23.8058 0
8 1 23.0708 18.8099 0
9 1 18.5815 28.3251 0
10 1 17.5216 3.37871 0
11 1 27.0571 10.9672 0
12 1 4.55326 4.68762 0
13 1 16.8659 28.3837 0
14 1 1.55167 2.0812 0
15 1 20.5784 3.72227 0
16 1 9.50092 6.93322 0
17 1 3.83222 1.06868 0
18 1 21.3535 0.667782 0
19 1 20.5441 29.9029 0
20 1 4.69926 12.9006 0
21 1 9.12439 28.3031 0
22 1 18.3995 7.53146 0
23 1 1.51447 13.4698 0
24 1 25.918 8.69106 0
25 1 27.2841 7.40609 0
26 1 9.96169 25.3139 0
27 1 5.09323 14.1271 0
28 1 24.7677 3.00492 0
29 1 19.0558 4.96281 0
30 1 17.897 29.211 0
31 1 7.81276 26.6119 0
32 1 1.13905 28.3248 0
33 1 17.8384 17.9907 0
34 1 0.658378 18.2505 0
35 1 12.7854 2.30146 0
36 1 29.2914 11.2457 0
37 1 24.4254 13.8258 0
38 1 16.9715 10.966 0
39 1 29.8655 20.7753 0
40 1 11.1121 7.12223 0
41 1 29.3548 28.9108 0
42 1 2.89003 10.518 0
43 1 4.96258 19.0522 0
44 1 7.72694 29.3493 0
45 1 21.2565 27.952 0
46 1 6.77534 3.2948 0
47 1 15.8478 18.8911 0
48 1 11.5659 0.812302 0
49 1 28.2114 5.38629 0
50 1 5.15899 25.5625 0
51 1 19.8749 17.9493 0
52 1 14.097 25.1366 0
53 1 4.01359 16.0005 0
54 1 22.2458 25.066 0
55 1 26.5559 18.1832 0
56 1 29.0567 6.33506 0
57 1 12.9559 19.1267 0
58 1 7.75831 3.65524 0
59 1 11.4062 12.0666 0
60 1 29.4559 29.8665 0
61 1 23.0643 17.2609 0
62 1 23.0912 4.61682 0
63 1 27.5845 29.558 0
64 1 14.5934 17.3095 0
65 1 27.1513 23.7693 0
66 1 6.04515 9.16106 0
67 1 21.5924 23.8468 0
68 1 11.7469 18.4936 0
69 1 15.1569 1.64623 0
70 1 7.74333 17.0625 0
71 1 1.25361 30.0257 0
72 1 14.9928 26.9649 0
73 1 12.6881 25.5618 0
74 1 19.3215 15.2384 0
75 1 9.00173 24.8883 0
76 1 15.8028 29.2427 0
77 1 13.6092 26.6807 0
78 1 7.66537 12.298 0
79 1 14.2458 16.2233 0
80 1 7.65417 24.4888 0
81 1 28.6727 27.7652 0
82 1 27.4139 25.8011 0
83 1 11.5326 20.4097 0
84 1 26.2796 6.62036 0
85 1 8.37989 2.77212 0
86 1 20.7095 18.5961 0
87 1 18.395 23.2878 0
88 1 2.26994 24.8694 0
89 1 0.653267 19.9015 0
90 1 14.7957 27.9801 0
91 1 5.2222 3.08815 0
92 1 23.3048 15.979 0
93 1 3.39891 9.37279 0
94 1 0.604024 26.1811 0
95 1 24.2052 19.5103 0
96 1 9.06011 29.9701 0
97 1 28.8212 1.72792 0
98 1 11.0392 3.23985 0
99 1 17.5397 8.97943 0
100 1 20.784 21.8433 0
101 1 5.89963 22.5655 0
102 1 19.6498 19.205 0
103 1 19.8738 10.6715 0
104 1 6.69695 0.54243 0
105 1 18.7014 16.2053 0
106 1 5.80169 12.9631 0
107 1 10.3522 28.4267 0
108 1 9.89958 7.67719 0
109 1 15.489 24.9077 0
110 1 2.66934 8.17971 0
111 1 6.28092 4.89561 0
112 1 6.66435 6.13177 0
113 1 11.8841 22.3485 0
114 1 4.04919 3.64301 0
115 1 23.1136 11.0202 0
116 1 2.93764 28.8108 0
117 1 22.7876 19.8047 0
118 1 14.4478 12.1482 0
119 1 29.8422 3.46361 0
120 1 17.141 4.34499 0
121 1 23.9828 22.052 0
122 1 5.52411 20.4868 0
123 1 16.3709 17.4895 0
124 1 12.7194 9.6326 0
125 1 1.14263 10.9497 0
126 1 2.01536 14.9611 0
127 1 10.1529 1.9721 0
128 1 27.7572 18.1247 0
129 1 9.63573 13.2369 0
130 1 7.86083 8.45359 0
131 1 20.7548 1.54861 0
132 1 27.8332 20.3667 0
133 1 8.35835 0.990039 0
134 1 9.37754 3.71325 0
135 1 6.27026 29.3028 0
136 1 20.9855 23.1157 0
137 1 22.6628 9.87298 0
138 1 1.27231 16.9691 0
139 1 5.10568 27.7194 0
140 1 29.7679 4.78946 0
141 1 26.0284 19.7376 0
142 1 4.1307 5.37128 0
143 1 21.2765 4.88125 0
144 1 2.51004 26.0063 0
145 1 13.4899 16.6186 0
146 1 29.7191 13.8254 0
147 1 0.678941 3.55158 0
148 1 13.0039 20.5668 0
149 1 5.52534 1.23109 0
150 1 2.25539 16.0801 0
151 1 15.5407 15.3676 0
152 1 4.79916 16.2844 0
153 1 20.2493 9.61082 0
154 1 13.8966 1.89814 0
155 1 19.2523 3.531 0
156 1 24.1709 9.81148 0
157 1 16.481 12.3031 0
158 1 19.0021 10.7863 0
159 1 12.8075 12.7796 0
160 1 22.825 28.1213 0
161 1 18.1242 14.3178 0
162 1 20.8825 20.0926 0
163 1 28.9599 17.6078 0
164 1 21.5244 3.38145 0
165 1 7.57234 18.853 0
166 1 8.40988 4.50163 0
167 1 24.7667 14.7214 0
168 1 20.315 26.0363 0
169 1 4.16338 7.58159 0
170 1 28.3762 22.9402 0
171 1 7.71151 23.5555 0
172 1 0.31185 29.8002 0
173 1 9.075 10.0768 0
174 1 13.0642 3.28939 0
175 1 17.7448 12.6423 0
176 1 26.2567 4.58645 0
177 1 20.396 12.9824 0
178 1 5.17385 17.6401 0
179 1 27.6442 19.1608 0
180 1 1.70723 18.693 0
181 1 1.48547 20.1997 0
182 1 10.8099 11.5334 0
183 1 25.6126 10.1566 0
184 1 23.4681 29.7108 0
185 1 15.2558 10.6967 0
186 1 21.5833 26.8754 0
187 1 3.35323 19.7943 0
188 1 26.1203 28.6637 0
189 1 1.57132 27.1049 0
190 1 24.6681 18.1633 0
191 1 12.6074 5.2896 0
192 1 9.79758 5.73141 0
193 1 20.8419 14.7349 0
194 1 26.751 3.53617 0
ITEM: TIMESTEP
1155
ITEM: NUMBER OF ATOMS
194
ITEM: BOX BOUNDS pp pp pp
0.0000000000000000e+00 3.0000000000000000e+01
0.0000000000000000e+00 3.0000000000000000e+01
-5.0000000000000000e-01 5.0000000000000000e-01
ITEM: ATOMS id type x y z
1 1 22.6822 8.45634 0
2 1 24.2342 11.5329 0
3 1 18.7153 0.964276 0
4 1 10.0507 18.3173 0
5 1 2.11865 28.3545 0
6 1 17.1905 1.14072 0
7 1 8.96138 23.9177 0
8 1 22.9932 19.026 0
9 1 18.8366 28.2801 0
10 1 17.479 3.21128 0
11 1 26.9474 11.2608 0
12 1 4.60343 4.12548 0
13 1 16.4677 28.1313 0
14 1 1.34898 1.85017 0
15 1 20.4308 3.51151 0
16 1 9.16526 6.87948 0
17 1 3.22982 1.06934 0
18 1 21.3257 1.15598 0
19 1 20.8889 0.14819 0
20 1 4.86446 13.4253 0
21 1 9.37767 28.6823 0
22 1 18.6317 7.46638 0
23 1 1.7273 13.6758 0
24 1 25.5107 8.41506 0
25 1 27.3203 7.34924 0
26 1 9.72436 24.8446 0
27 1 5.03238 14.347 0
28 1 24.9988 2.65997 0
29 1 19.6556 5.21907 0
30 1 18.0871 28.835 0
31 1 7.83455 26.8928 0
32 1 1.17982 28.4673 0
33 1 17.971 17.7884 0
34 1 0.687938 18.0698 0
35 1 12.9434 2.07882 0
36 1 29.3663 10.8467 0
37 1 24.535 13.3481 0
38 1 17.2528 10.9257 0
39 1 29.8195 20.5014 0
40 1 11.0796 7.54436 0
41 1 29.8517 29.1665 0
42 1 3.0241 10.5785 0
43 1 4.73369 19.1035 0
44 1 7.50338 29.2849 0
45 1 21.5753 27.5753 0
46 1 6.3183 3.20158 0
47 1 15.7896 18.8909 0
48 1 11.5676 1.09044 0
49 1 28.4983 5.37746 0
50 1 5.85781 25.3199 0
51 1 19.9697 17.8451 0
52 1 14.291 25.4527 0
53 1 4.05071 15.6782 0
54 1 22.804 25.1099 0
55 1 26.0753 18.3075 0
56 1 29.2486 5.7724 0
57 1 13.0221 19.5359 0
58 1 7.80586 3.55105 0
59 1 11.6716 12.3397 0
60 1 29.1911 0.251471 0
61 1 23.3554 17.3502 0
62 1 23.2271 4.64164 0
63 1 27.303 29.6334 0
64 1 14.9094 17.4307 0
65 1 27.1508 23.957 0
66 1 5.7651 9.57008 0
67 1 21.7576 23.9083 0
68 1 11.8341 18.0653 0
69 1 15.0069 1.4885 0
70 1 7.90912 17.0491 0
71 1 1.37549 0.401472 0
72 1 15.171 26.97 0
73 1 12.5235 25.781 0
74 1 18.9257 15.4137 0
75 1 8.59536 24.976 0
76 1 15.7655 28.9842 0
77 1 13.5526 26.1548 0
78 1 7.99834 12.5097 0
79 1 14.5947 16.3054 0
80 1 7.5226 24.9834 0
81 1 28.861 27.3942 0
82 1 27.354 25.984 0
83 1 11.6188 20.0911 0
84 1 26.2896 6.47189 0
85 1 8.44063 2.94844 0
86 1 20.6401 18.7565 0
87 1 18.4809 23.0529 0
88 1 1.98773 24.7169 0
89 1 0.733838 19.7536 0
90 1 15.1932 27.9156 0
91 1 5.39841 3.39586 0
92 1 23.3117 16.2467 0
93 1 3.08657 9.5949 0
94 1 0.533578 26.0138 0
95 1 24.4205 19.5269 0
96 1 8.82027 29.8198 0
97 1 28.3199 1.61692 0
98 1 11.1543 3.50178 0
99 1 17.3066 9.16177 0
100 1 20.7926 21.8394 0
101 1 5.6602 22.795 0
102 1 19.9061 19.1916 0
103 1 19.979 10.9529 0
104 1 7.12129 0.732693 0
105 1 18.6036 16.2487 0
106 1 5.73122 13.0888 0
107 1 10.068 28.0833 0
108 1 10.1925 7.70107 0
109 1 15.5372 25.2163 0
110 1 2.98004 7.93211 0
111 1 6.36765 4.70557 0
112 1 6.58719 6.28754 0
113 1 11.4951 22.3021 0
114 1 3.79105 3.40102 0
115 1 23.013 10.6838 0
116 1 3.09918 29.1063 0
117 1 22.4537 19.7835 0
118 1 14.7285 12.3106 0
119 1 29.6554 3.48946 0
120 1 16.9799 4.32987 0
121 1 23.8024 22.2053 0
122 1 5.94328 20.5665 0
123 1 16.0533 16.9967 0
124 1 12.2197 9.31856 0
125 1 1.36498 11.1201 0
126 1 2.0813 15.1042 0
127 1 10.5043 1.84449 0
128 1 28.0886 18.0539 0
129 1 9.86643 13.1327 0
130 1 7.46988 8.64561 0
131 1 20.6823 1.80279 0
132 1 27.9417 20.1424 0
133 1 8.54735 0.666259 0
134 1 9.20554 3.74983 0
135 1 5.62674 29.167 0
136 1 20.7627 23.3817 0
137 1 22.6848 9.68857 0
138 1 0.848053 16.7995 0
139 1 4.71993 27.9404 0
140 1 29.8405 4.68598 0
141 1 26.1024 19.4412 0
142 1 3.75235 5.26809 0
143 1 20.8488 5.09222 0
144 1 2.46736 26.3012 0
145 1 13.3679 16.5439 0
146 1 29.6131 14.085 0
147 1 0.973701 3.54111 0
148 1 13.0576 20.3708 0
149 1 5.82684 1.47108 0
150 1 2.57006 16.1408 0
151 1 15.0976 15.4082 0
152 1 5.09194 16.3788 0
153 1 20.6126 9.19623 0
154 1 14.1429 1.79193 0
155 1 19.0577 3.60757 0
156 1 24.3212 10.3206 0
157 1 16.6315 12.2762 0
158 1 18.8847 10.5607 0
159 1 12.4799 12.4957 0
160 1 22.7111 27.9625 0
161 1 18.6031 14.0085 0
162 1 20.7478 20.1069 0
163 1 28.9646 17.7181 0
164 1 21.5936 4.14326 0
165 1 7.78882 18.8658 0
166 1 8.27263 4.2952 0
167 1 24.4824 14.7099 0
168 1 20.341 26.4139 0
169 1 4.26614 7.76325 0
170 1 28.2614 22.5238 0
171 1 7.32662 23.4231 0
172 1 0.415165 29.9157 0
173 1 8.72723 10.1077 0
174 1 12.6813 3.10489 0
175 1 17.5312 12.4407 0
176 1 26.297 4.24734 0
177 1 20.5659 13.1872 0
178 1 5.06288 17.7459 0
179 1 27.7688 19.3022 0
180 1 1.41614 18.6668 0
181 1 1.84638 20.1285 0
182 1 10.7233 11.294 0
183 1 25.2769 10.583 0
184 1 23.4743 29.6024 0
185 1 15.2518 10.6528 0
186 1 21.5048 26.6806 0
187 1 3.09439 19.4934 0
188 1 26.2713 28.7457 0
189 1 1.87258 27.3602 0
190 1 24.7289 18.2417 0
191 1 12.4709 4.92155 0
192 1 9.76257 6.12139 0
193 1 20.9426 14.9095 0
194 1 26.9715 3.53316 0
ITEM: TIMESTEP
1170
ITEM: NUMBER OF ATOMS
194
ITEM: BOX BOUNDS pp pp pp
0.0000000000000000e+00 3.0000000000000000e+01
0.0000000000000000e+00 3.0000000000000000e+01
-5.0000000000000000e-01 5.0000000000000000e-01
ITEM: ATOMS id type x y z
1 1 22.5956 8.29506 0
2 1 23.9329 11.468 0
3 1 18.8206 0.828628 0
4 1 10.4033 18.6052 0
5 1 2.13303 28.3591 0
6 1 17.1078 1.29571 0
7 1 8.89528 23.9372 0
8 1 23.0045 19.0969 0
9 1 19.1887 28.1658 0
10 1 17.4365 3.04715 0
11 1 26.837 11.554 0
12 1 4.50788 3.53821 0
13 1 16.2899 27.8725 0
14 1 1.14541 1.62003 0
15 1 20.2765 3.30294 0
16 1 8.76975 6.86278 0
17 1 2.62628 1.06954 0
18 1 21.6211 1.87046 0
19 1 21.017 0.0715001 0
20 1 4.88158 13.7801 0
21 1 9.46514 29.1539 0
22 1 18.8637 7.40148 0
23 1 1.94054 13.8847 0
24 1 25.1037 8.13911 0
25 1 27.353 7.28953 0
26 1 9.58923 24.468 0
27 1 5.00532 14.7765 0
28 1 25.2303 2.31539 0
29 1 19.7949 5.57538 0
30 1 18.1788 28.5279 0
31 1 7.85646 27.1732 0
32 1 1.12541 28.6209 0
33 1 18.1043 17.5844 0
34 1 0.63736 17.8155 0
35 1 13.1059 1.83291 0
36 1 29.4414 10.4478 0
37 1 24.6439 12.8706 0
38 1 17.5345 10.8886 0
39 1 29.7764 20.2245 0
40 1 11.3098 7.94168 0
41 1 0.24326 29.2465 0
42 1 3.16036 10.7035 0
43 1 4.50486 19.152 0
44 1 7.28272 29.2246 0
45 1 21.8829 27.3686 0
46 1 6.13666 2.98968 0
47 1 15.7309 18.889 0
48 1 11.587 1.36069 0
49 1 28.3805 5.11479 0
50 1 6.55608 25.0764 0
51 1 20.0626 17.7437 0
52 1 14.5424 25.7425 0
53 1 4.00683 15.3183 0
54 1 23.3608 25.1525 0
55 1 25.599 18.4127 0
56 1 29.8457 5.47176 0
57 1 13.0625 19.4342 0
58 1 7.47455 3.40956 0
59 1 11.3866 12.6062 0
60 1 28.9134 0.644434 0
61 1 23.6495 17.4495 0
62 1 23.3618 4.66619 0
63 1 27.0195 29.7067 0
64 1 15.2267 17.548 0
65 1 27.151 24.1444 0
66 1 5.48541 9.97876 0
67 1 21.9343 23.9807 0
68 1 11.9212 17.638 0
69 1 15.0695 1.24395 0
70 1 8.07492 17.0366 0
71 1 1.51483 0.782363 0
72 1 15.3492 26.8673 0
73 1 12.3565 26.0003 0
74 1 18.5981 15.3993 0
75 1 8.21699 25.0564 0
76 1 15.7287 28.7604 0
77 1 13.4473 25.6557 0
78 1 8.33162 12.7215 0
79 1 14.943 16.4311 0
80 1 7.36141 25.4848 0
81 1 29.0495 27.0234 0
82 1 27.2943 26.1667 0
83 1 11.7099 19.7719 0
84 1 26.303 6.32627 0
85 1 8.70609 2.88855 0
86 1 20.9902 18.6756 0
87 1 18.5668 22.818 0
88 1 1.70564 24.5664 0
89 1 0.671919 19.5552 0
90 1 15.3697 27.9288 0
91 1 5.50552 3.76908 0
92 1 23.3172 16.5061 0
93 1 2.77083 9.75136 0
94 1 0.464376 25.8471 0
95 1 24.6354 19.5375 0
96 1 8.61848 29.4631 0
97 1 27.8195 1.50458 0
98 1 11.2713 3.76256 0
99 1 17.0739 9.34504 0
100 1 20.8012 21.8369 0
101 1 5.4217 23.0247 0
102 1 19.748 19.4239 0
103 1 20.1401 11.2364 0
104 1 7.54749 0.921085 0
105 1 18.4365 16.4806 0
106 1 5.77391 13.1766 0
107 1 9.96539 27.6376 0
108 1 10.2324 7.76415 0
109 1 15.5805 25.5268 0
110 1 3.29513 7.68553 0
111 1 6.45389 4.51285 0
112 1 6.50974 6.44138 0
113 1 11.1061 22.2554 0
114 1 3.53232 3.15743 0
115 1 22.9284 10.3811 0
116 1 3.41753 29.4748 0
117 1 22.0331 19.9068 0
118 1 15.0099 12.4721 0
119 1 29.4568 3.51904 0
120 1 16.8205 4.31146 0
121 1 23.622 22.3586 0
122 1 6.36205 20.6459 0
123 1 15.7425 16.5061 0
124 1 11.7196 9.00393 0
125 1 1.58805 11.2901 0
126 1 2.14794 15.2471 0
127 1 10.8391 1.72675 0
128 1 28.2124 18.0625 0
129 1 10.0975 13.0277 0
130 1 7.07889 8.83817 0
131 1 20.5026 2.1543 0
132 1 28.1165 20.2304 0
133 1 8.67444 0.55758 0
134 1 9.05324 3.78874 0
135 1 4.9826 29.0298 0
136 1 20.5292 23.6357 0
137 1 22.6978 9.46584 0
138 1 0.424088 16.6349 0
139 1 4.33532 28.1637 0
140 1 29.9128 4.568 0
141 1 26.1853 19.1655 0
142 1 3.31916 5.24799 0
143 1 20.8792 5.19831 0
144 1 2.42709 26.5843 0
145 1 13.228 16.4781 0
146 1 29.5075 14.3446 0
147 1 1.2799 3.53208 0
148 1 13.1314 20.6854 0
149 1 6.13077 1.71108 0
150 1 2.88464 16.1988 0
151 1 14.6659 15.4 0
152 1 5.46462 16.5138 0
153 1 20.9759 8.78285 0
154 1 14.1715 1.7741 0
155 1 18.866 3.68479 0
156 1 24.2533 10.6862 0
157 1 16.527 12.2084 0
158 1 18.7104 10.3323 0
159 1 12.7683 12.2812 0
160 1 22.6172 27.8146 0
161 1 19.0829 13.7016 0
162 1 20.611 20.1146 0
163 1 29.1761 17.7541 0
164 1 21.6689 4.90531 0
165 1 8.00546 18.8779 0
166 1 8.28614 4.35956 0
167 1 24.1985 14.6978 0
168 1 20.3708 26.7934 0
169 1 4.36472 7.94567 0
170 1 28.1461 22.108 0
171 1 6.94273 23.2923 0
172 1 0.622733 0.191105 0
173 1 8.37924 10.1383 0
174 1 12.2958 2.94274 0
175 1 17.5731 12.2757 0
176 1 26.2948 3.94853 0
177 1 20.7356 13.3929 0
178 1 4.95103 17.8512 0
179 1 27.8271 19.1264 0
180 1 1.20413 18.7148 0
181 1 2.34943 20.1035 0
182 1 10.5706 10.9921 0
183 1 25.1777 11.084 0
184 1 23.4801 29.4933 0
185 1 15.2482 10.6102 0
186 1 21.4145 26.3035 0
187 1 2.83393 19.1928 0
188 1 26.425 28.8301 0
189 1 2.1311 27.3427 0
190 1 24.7749 18.3232 0
191 1 12.3338 4.55217 0
192 1 9.77807 6.46042 0
193 1 21.0427 15.0832 0
194 1 27.2343 3.48975 0
ITEM: TIMESTEP
1185
ITEM: NUMBER OF ATOMS
194
ITEM: BOX BOUNDS pp pp pp
0.0000000000000000e+00 3.0000000000000000e+01
0.0000000000000000e+00 3.0000000000000000e+01
-5.0000000000000000e-01 5.0000000000000000e-01
ITEM: ATOMS id type x y z
1 1 22.5076 8.13631 0
2 1 23.4916 11.7724 0
3 1 18.9253 0.693203 0
4 1 10.7577 18.8936 0
5 1 2.20805 28.6444 0
6 1 17.0258 1.45142 0
7 1 8.48837 23.6707 0
8 1 23.0183 19.1651 0
9 1 19.5704 28.0352 0
10 1 17.394 2.88621 0
11 1 26.7253 11.8469 0
12 1 4.17159 3.00916 0
13 1 16.6841 27.594 0
14 1 0.807671 1.59466 0
15 1 20.0861 3.23113 0
16 1 8.35278 6.86373 0
17 1 2.43488 1.16399 0
18 1 21.9408 2.56772 0
19 1 21.1452 -0.00380524 0
20 1 4.8591 14.0009 0
21 1 9.67542 29.5705 0
22 1 19.0959 7.33605 0
23 1 2.15438 14.0977 0
24 1 24.6968 7.86296 0
25 1 27.383 7.22743 0
26 1 9.78934 24.3823 0
27 1 5.00692 15.3516 0
28 1 25.4622 1.97128 0
29 1 19.4307 6.04891 0
30 1 18.2412 28.2363 0
31 1 7.87827 27.4526 0
32 1 1.14433 28.6995 0
33 1 18.2169 17.5085 0
34 1 0.559827 17.5306 0
35 1 13.228 1.58572 0
36 1 29.5168 10.049 0
37 1 24.7515 12.3914 0
38 1 17.8177 10.8537 0
39 1 29.7282 19.9498 0
40 1 11.6321 7.97374 0
41 1 0.468802 29.2978 0
42 1 3.30519 10.8726 0
43 1 4.27599 19.1968 0
44 1 7.06704 29.1663 0
45 1 21.9386 27.0193 0
46 1 6.12169 2.70259 0
47 1 15.6712 18.8836 0
48 1 11.9811 1.45796 0
49 1 28.2601 4.84868 0
50 1 7.11516 24.7217 0
51 1 20.1578 17.6468 0
52 1 14.7868 26.0322 0
53 1 3.95397 14.9598 0
54 1 23.9169 25.1948 0
55 1 25.5297 18.4786 0
56 1 0.442605 5.33154 0
57 1 13.0944 19.2321 0
58 1 7.12902 3.26635 0
59 1 11.0613 12.8556 0
60 1 28.6345 1.03845 0
61 1 23.9561 17.5846 0
62 1 23.4952 4.69096 0
63 1 26.7511 29.8144 0
64 1 15.5443 17.6625 0
65 1 27.1513 24.332 0
66 1 5.20593 10.3871 0
67 1 22.1085 24.0526 0
68 1 12.0088 17.2108 0
69 1 15.2354 0.950996 0
70 1 8.24069 17.0247 0
71 1 1.474 0.921117 0
72 1 15.5267 26.7451 0
73 1 12.1891 26.2184 0
74 1 18.2827 15.3413 0
75 1 7.92276 25.099 0
76 1 15.7394 28.6985 0
77 1 13.3039 25.1711 0
78 1 8.66574 12.9334 0
79 1 14.6817 16.5838 0
80 1 7.26062 26.1301 0
81 1 29.2382 26.652 0
82 1 27.235 26.3493 0
83 1 11.8047 19.4514 0
84 1 26.3189 6.18299 0
85 1 8.94992 2.75877 0
86 1 21.3413 18.5935 0
87 1 18.6531 22.5831 0
88 1 1.42304 24.4169 0
89 1 0.547632 19.4559 0
90 1 14.9263 27.8161 0
91 1 5.69573 4.19134 0
92 1 23.3089 16.727 0
93 1 2.44518 9.86413 0
94 1 0.395595 25.6804 0
95 1 24.8528 19.54 0
96 1 8.29675 29.1032 0
97 1 27.3218 1.38994 0
98 1 11.376 4.01541 0
99 1 16.842 9.53022 0
100 1 20.8096 21.8341 0
101 1 5.1855 23.2548 0
102 1 19.582 19.6539 0
103 1 20.2998 11.5192 0
104 1 7.97359 1.10916 0
105 1 18.279 16.6271 0
106 1 5.83431 13.255 0
107 1 9.86309 27.1922 0
108 1 10.1667 7.82527 0
109 1 15.6711 25.8274 0
110 1 3.60749 7.43766 0
111 1 6.56913 4.32533 0
112 1 6.43244 6.59474 0
113 1 10.7172 22.2087 0
114 1 3.2339 2.90319 0
115 1 22.8764 10.1855 0
116 1 3.73691 29.8408 0
117 1 21.6073 20.031 0
118 1 15.2937 12.6324 0
119 1 29.2583 3.54976 0
120 1 16.6629 4.28963 0
121 1 23.4415 22.512 0
122 1 6.78079 20.7251 0
123 1 16.036 16.0345 0
124 1 11.2302 9.05217 0
125 1 1.81251 11.4592 0
126 1 2.21744 15.39 0
127 1 10.8022 1.78483 0
128 1 28.2056 18.0968 0
129 1 10.262 12.933 0
130 1 6.68802 9.03142 0
131 1 20.3316 2.38665 0
132 1 28.3055 20.3758 0
133 1 8.79175 0.50573 0
134 1 9.00245 3.83667 0
135 1 4.41639 28.9986 0
136 1 20.2986 23.8897 0
137 1 22.6838 9.13665 0
138 1 0.000228332 16.4763 0
139 1 3.86983 28.2832 0
140 1 29.9891 4.29078 0
141 1 26.3429 18.9847 0
142 1 2.88624 5.22728 0
143 1 20.9032 5.31672 0
144 1 2.59107 26.3362 0
145 1 13.0896 16.4126 0
146 1 29.4019 14.6042 0
147 1 1.58427 3.52322 0
148 1 13.2088 21.1004 0
149 1 6.44411 1.92397 0
150 1 3.19873 16.251 0
151 1 14.2375 15.3525 0
152 1 5.83519 16.6503 0
153 1 21.3414 8.36944 0
154 1 14.1332 1.8082 0
155 1 18.6755 3.76072 0
156 1 24.1 10.6078 0
157 1 16.2914 12.1238 0
158 1 18.5339 10.1058 0
159 1 13.1623 12.0724 0
160 1 22.7761 27.825 0
161 1 19.5639 13.3955 0
162 1 20.4829 20.1232 0
163 1 29.5312 17.7411 0
164 1 22.2544 5.53685 0
165 1 8.22216 18.8893 0
166 1 8.2275 4.48684 0
167 1 23.9146 14.6852 0
168 1 20.4031 27.173 0
169 1 4.46597 8.12983 0
170 1 28.0307 21.6914 0
171 1 6.55711 23.1625 0
172 1 0.793444 0.520726 0
173 1 8.03086 10.1684 0
174 1 11.9081 2.78065 0
175 1 17.7445 12.1226 0
176 1 26.2674 3.6664 0
177 1 20.904 13.5998 0
178 1 4.83887 17.9574 0
179 1 27.862 18.9163 0
180 1 1.08392 18.6884 0
181 1 2.84523 20.0913 0
182 1 10.4182 10.6911 0
183 1 25.2999 11.6592 0
184 1 23.4856 29.3835 0
185 1 15.245 10.5683 0
186 1 21.3201 25.9119 0
187 1 2.57891 18.8778 0
188 1 26.5639 28.8807 0
189 1 2.15613 27.5698 0
190 1 24.3381 18.3604 0
191 1 12.2119 4.18559 0
192 1 9.81744 6.78626 0
193 1 21.1424 15.2558 0
194 1 27.5227 3.42948 0
ITEM: TIMESTEP
1200
ITEM: NUMBER OF ATOMS
194
ITEM: BOX BOUNDS pp pp pp
0.0000000000000000e+00 3.0000000000000000e+01
0.0000000000000000e+00 3.0000000000000000e+01
-5.0000000000000000e-01 5.0000000000000000e-01
ITEM: ATOMS id type x y z
1 1 22.4782 7.9169 0
2 1 23.049 12.0881 0
3 1 19.0298 0.558019 0
4 1 11.0683 19.1749 0
5 1 2.30806 28.9408 0
6 1 16.9443 1.60966 0
7 1 8.07767 23.4061 0
8 1 23.0328 19.2321 0
9 1 19.8479 27.9918 0
10 1 17.3515 2.72535 0
11 1 26.6148 12.1406 0
12 1 3.94201 2.49519 0
13 1 17.074 27.316 0
14 1 0.353742 1.70707 0
15 1 19.784 3.57135 0
16 1 7.9385 6.86436 0
17 1 2.7683 1.38083 0
18 1 22.2582 3.26513 0
19 1 21.2734 29.921 0
20 1 4.83877 14.2242 0
21 1 9.88811 29.9881 0
22 1 19.3328 7.29829 0
23 1 2.36898 14.316 0
24 1 24.2896 7.58679 0
25 1 27.4112 7.1634 0
26 1 9.99031 24.2979 0
27 1 5.01685 15.9244 0
28 1 25.6953 1.62742 0
29 1 19.0636 6.49395 0
30 1 18.3062 27.9434 0
31 1 7.89909 27.7312 0
32 1 1.37862 28.5772 0
33 1 18.2822 17.812 0
34 1 0.55966 17.213 0
35 1 13.2465 1.31018 0
36 1 29.5921 9.65011 0
37 1 24.4813 12.2415 0
38 1 18.0833 10.8463 0
39 1 29.5357 19.7486 0
40 1 11.9567 7.65138 0
41 1 0.45994 29.5408 0
42 1 3.44681 11.0398 0
43 1 4.04641 19.2386 0
44 1 6.85699 29.1076 0
45 1 21.9533 26.6392 0
46 1 5.96975 2.7197 0
47 1 15.611 18.8738 0
48 1 12.4123 1.54048 0
49 1 28.1407 4.57924 0
50 1 7.39171 24.1549 0
51 1 20.2542 17.5517 0
52 1 14.8345 26.3363 0
53 1 3.89239 14.6024 0
54 1 24.4727 25.2369 0
55 1 25.4583 18.4991 0
56 1 1.0436 5.22548 0
57 1 13.1213 19.0316 0
58 1 6.79193 3.12768 0
59 1 11.3104 13.036 0
60 1 28.352 1.43349 0
61 1 24.1697 17.4415 0
62 1 23.6267 4.71706 0
63 1 26.5066 30.0127 0
64 1 15.8609 17.777 0
65 1 27.1516 24.52 0
66 1 4.92612 10.7951 0
67 1 22.2822 24.1246 0
68 1 12.0975 16.783 0
69 1 15.399 0.660248 0
70 1 8.40636 17.0135 0
71 1 1.73116 1.22154 0
72 1 15.6935 26.8722 0
73 1 12.0237 26.435 0
74 1 17.9671 15.2884 0
75 1 7.89044 25.318 0
76 1 15.7568 28.6439 0
77 1 13.1601 24.6886 0
78 1 8.99977 13.1458 0
79 1 14.3444 16.7389 0
80 1 7.18386 26.8091 0
81 1 29.4287 26.2787 0
82 1 27.1761 26.5316 0
83 1 11.9487 19.137 0
84 1 26.3368 6.04159 0
85 1 9.18912 2.6113 0
86 1 21.691 18.5139 0
87 1 18.7398 22.3484 0
88 1 1.13953 24.2688 0
89 1 0.463102 19.4323 0
90 1 14.4806 27.6899 0
91 1 5.69077 4.57491 0
92 1 23.289 16.9313 0
93 1 2.12133 9.9803 0
94 1 0.325924 25.5143 0
95 1 25.0718 19.533 0
96 1 7.9655 28.7468 0
97 1 26.8265 1.27332 0
98 1 11.1883 4.21532 0
99 1 16.6112 9.71718 0
100 1 20.8178 21.8303 0
101 1 4.95336 23.4846 0
102 1 19.3857 19.868 0
103 1 20.4591 11.8027 0
104 1 8.37452 1.31853 0
105 1 18.1694 16.3891 0
106 1 5.89116 13.3362 0
107 1 9.76038 26.7471 0
108 1 10.1163 7.92405 0
109 1 15.9685 25.87 0
110 1 3.91711 7.18863 0
111 1 6.88277 4.1719 0
112 1 6.35568 6.74808 0
113 1 10.3282 22.1621 0
114 1 2.82859 2.63404 0
115 1 22.8349 10.0175 0
116 1 4.0482 0.225406 0
117 1 21.2186 20.1512 0
118 1 15.5598 12.8094 0
119 1 29.0452 3.57023 0
120 1 16.5065 4.26597 0
121 1 23.2608 22.6657 0
122 1 7.1996 20.8044 0
123 1 16.4034 15.5603 0
124 1 10.7341 9.45429 0
125 1 2.03897 11.6265 0
126 1 2.29105 15.5308 0
127 1 10.7144 1.86697 0
128 1 28.2872 17.9292 0
129 1 9.85256 12.9063 0
130 1 6.29748 9.2254 0
131 1 20.2718 2.20784 0
132 1 28.4971 20.5181 0
133 1 8.93501 0.427774 0
134 1 8.99513 3.86927 0
135 1 4.04474 29.1937 0
136 1 20.069 24.1436 0
137 1 22.6744 8.8357 0
138 1 29.5773 16.3252 0
139 1 3.21386 28.158 0
140 1 0.0737409 3.9903 0
141 1 26.5833 18.8628 0
142 1 2.45304 5.2063 0
143 1 20.8204 5.45457 0
144 1 2.78415 26.0106 0
145 1 12.9534 16.3471 0
146 1 29.2965 14.8644 0
147 1 1.88875 3.5143 0
148 1 13.2859 21.5143 0
149 1 6.88671 1.83325 0
150 1 3.51106 16.2976 0
151 1 13.8097 15.311 0
152 1 6.20367 16.7863 0
153 1 21.6389 7.96375 0
154 1 14.2158 1.86622 0
155 1 18.4858 3.8346 0
156 1 23.9481 10.5183 0
157 1 16.0763 12.0212 0
158 1 18.3729 9.85611 0
159 1 13.5562 11.8638 0
160 1 22.972 27.8627 0
161 1 20.0489 13.0896 0
162 1 20.35 20.148 0
163 1 29.8071 17.7598 0
164 1 22.9469 6.14823 0
165 1 8.43881 18.9002 0
166 1 8.12589 4.64492 0
167 1 23.6306 14.6728 0
168 1 20.5396 27.4641 0
169 1 4.5701 8.31519 0
170 1 27.9146 21.2742 0
171 1 6.16844 23.0344 0
172 1 0.256722 0.434001 0
173 1 7.68183 10.198 0
174 1 11.5185 2.61834 0
175 1 17.9134 11.9645 0
176 1 26.2434 3.38318 0
177 1 21.0686 13.8068 0
178 1 4.72567 18.066 0
179 1 27.8103 18.9101 0
180 1 1.06559 18.5081 0
181 1 3.3406 20.0789 0
182 1 10.2664 10.3894 0
183 1 25.793 11.9013 0
184 1 23.4904 29.2727 0
185 1 15.2427 10.5271 0
186 1 21.2267 25.5262 0
187 1 2.32355 18.5617 0
188 1 26.6795 28.8424 0
189 1 2.15066 27.8679 0
190 1 23.9239 18.6897 0
191 1 12.3835 3.86515 0
192 1 9.84214 7.07622 0
193 1 21.2419 15.4269 0
194 1 27.8096 3.37139 0
ITEM: TIMESTEP
1215
ITEM: NUMBER OF ATOMS
194
ITEM: BOX BOUNDS pp pp pp
0.0000000000000000e+00 3.0000000000000000e+01
0.0000000000000000e+00 3.0000000000000000e+01
-5.0000000000000000e-01 5.0000000000000000e-01
ITEM: ATOMS id type x y z
1 1 22.8303 7.54959 0
2 1 22.6101 12.4029 0
3 1 19.1346 0.423113 0
4 1 11.1567 19.4513 0
5 1 2.45251 29.254 0
6 1 16.8595 1.7625 0
7 1 7.88337 22.8462 0
8 1 22.8515 19.4044 0
9 1 19.7748 28.2343 0
10 1 17.3127 2.57161 0
11 1 26.982 12.6148 0
12 1 3.74555 1.99576 0
13 1 17.4632 27.0388 0
14 1 -0.0998287 1.8152 0
15 1 19.4773 3.91419 0
16 1 7.5229 6.86479 0
17 1 3.10467 1.58553 0
18 1 22.5757 3.96288 0
19 1 21.4015 29.8457 0
20 1 4.85312 14.4388 0
21 1 10.1195 0.401024 0
22 1 19.657 7.53719 0
23 1 2.58577 14.5397 0
24 1 23.911 7.36509 0
25 1 27.4379 7.09784 0
26 1 10.1908 24.2133 0
27 1 5.02523 16.4971 0
28 1 25.6641 1.36673 0
29 1 18.6097 6.66205 0
30 1 18.3705 27.6489 0
31 1 7.9673 27.7016 0
32 1 1.37016 28.6122 0
33 1 18.3476 18.1173 0
34 1 0.704234 16.812 0
35 1 13.5058 0.950536 0
36 1 29.6675 9.25126 0
37 1 24.0716 12.1966 0
38 1 18.337 10.8609 0
39 1 29.2141 19.6029 0
40 1 12.2799 7.32958 0
41 1 0.488833 29.6557 0
42 1 3.58779 11.2065 0
43 1 3.84774 19.1991 0
44 1 6.65034 29.0473 0
45 1 21.9653 26.2577 0
46 1 5.64703 2.69044 0
47 1 15.5507 18.8626 0
48 1 12.586 1.70604 0
49 1 28.0231 4.30533 0
50 1 7.38022 23.8213 0
51 1 20.3511 17.4573 0
52 1 14.8306 26.621 0
53 1 3.79736 14.2546 0
54 1 25.0284 25.279 0
55 1 25.382 18.5112 0
56 1 1.35344 5.10045 0
57 1 13.1669 18.8308 0
58 1 6.61074 3.04725 0
59 1 11.5746 13.2154 0
60 1 28.0676 1.82897 0
61 1 24.3917 17.2472 0
62 1 23.7569 4.74431 0
63 1 26.2627 0.216725 0
64 1 16.1768 17.8919 0
65 1 27.1518 24.7083 0
66 1 4.64385 11.2033 0
67 1 22.4556 24.1966 0
68 1 12.0187 16.4227 0
69 1 15.5622 0.370552 0
70 1 8.57183 17.0029 0
71 1 1.97358 1.52252 0
72 1 15.8715 27.1529 0
73 1 11.8584 26.6512 0
74 1 17.6503 15.232 0
75 1 7.92821 25.6003 0
76 1 15.773 28.5866 0
77 1 13.0162 24.2067 0
78 1 8.91042 13.5339 0
79 1 14.004 16.8913 0
80 1 7.09275 27.4792 0
81 1 29.6067 25.9161 0
82 1 27.1172 26.7135 0
83 1 12.2963 18.8277 0
84 1 26.3562 5.90166 0
85 1 9.42745 2.46521 0
86 1 22.0418 18.4365 0
87 1 18.8268 22.1137 0
88 1 0.854576 24.1232 0
89 1 0.498668 19.3605 0
90 1 14.0401 27.5597 0
91 1 5.67165 4.95667 0
92 1 23.2467 17.123 0
93 1 1.79846 10.0988 0
94 1 0.270091 25.3352 0
95 1 25.2881 19.5289 0
96 1 7.59948 28.7081 0
97 1 26.5989 1.07394 0
98 1 10.9603 4.4116 0
99 1 16.38 9.90583 0
100 1 20.8256 21.8244 0
101 1 4.72587 23.7126 0
102 1 19.1102 20.0617 0
103 1 20.6268 12.0395 0
104 1 8.76209 1.54642 0
105 1 18.0614 16.1533 0
106 1 5.94475 13.4202 0
107 1 9.65745 26.3019 0
108 1 10.1323 8.22498 0
109 1 16.3061 25.7864 0
110 1 4.22891 6.9431 0
111 1 7.2156 4.03195 0
112 1 6.28081 6.90151 0
113 1 9.93914 22.1158 0
114 1 2.40563 2.36736 0
115 1 22.7975 9.84761 0
116 1 4.3515 0.640842 0
117 1 21.1068 20.2719 0
118 1 15.7697 13.0618 0
119 1 28.8527 3.59864 0
120 1 16.351 4.24135 0
121 1 23.0795 22.8203 0
122 1 7.61849 20.8835 0
123 1 16.7706 15.0863 0
124 1 10.4335 9.46575 0
125 1 2.2677 11.7916 0
126 1 2.36822 15.6682 0
127 1 10.5694 1.89376 0
128 1 28.3897 17.7201 0
129 1 9.85141 12.7049 0
130 1 5.90725 9.41997 0
131 1 20.2123 2.0273 0
132 1 28.7617 20.588 0
133 1 9.0721 0.338858 0
134 1 8.98782 3.89804 0
135 1 3.67924 29.3596 0
136 1 19.8401 24.3978 0
137 1 22.6861 8.65523 0
138 1 29.1571 16.1778 0
139 1 2.92467 28.0826 0
140 1 0.163604 3.69455 0
141 1 26.8238 18.7424 0
142 1 2.30968 5.20101 0
143 1 20.7374 5.59262 0
144 1 2.9769 25.6858 0
145 1 12.9905 16.2122 0
146 1 29.1915 15.1273 0
147 1 2.19547 3.50363 0
148 1 13.363 21.928 0
149 1 7.34562 1.72028 0
150 1 3.82341 16.341 0
151 1 13.3803 15.2747 0
152 1 6.56976 16.921 0
153 1 21.5365 7.58811 0
154 1 14.3125 1.9279 0
155 1 18.2989 3.90636 0
156 1 23.7913 10.4283 0
157 1 15.9176 11.8417 0
158 1 18.2234 9.57992 0
159 1 13.9505 11.655 0
160 1 23.1673 27.9013 0
161 1 20.5297 12.8337 0
162 1 20.0202 20.193 0
163 1 29.937 17.8629 0
164 1 23.6093 6.70528 0
165 1 8.65536 18.9106 0
166 1 8.02063 4.8007 0
167 1 23.3465 14.6606 0
168 1 21.0258 27.468 0
169 1 4.67269 8.49722 0
170 1 27.7286 20.9255 0
171 1 5.77656 22.909 0
172 1 29.6758 0.47666 0
173 1 7.33178 10.2268 0
174 1 11.1888 2.51186 0
175 1 18.0804 11.8104 0
176 1 26.2217 3.09906 0
177 1 21.2291 14.0123 0
178 1 4.61043 18.1777 0
179 1 27.7427 18.9474 0
180 1 1.05103 18.3161 0
181 1 3.80611 20.1426 0
182 1 9.91869 10.4761 0
183 1 25.9442 11.8567 0
184 1 23.4943 29.1594 0
185 1 15.2425 10.4862 0
186 1 21.1357 25.1433 0
187 1 2.06574 18.2466 0
188 1 26.7941 28.799 0
189 1 1.97795 27.941 0
190 1 23.7229 18.9794 0
191 1 12.5943 3.54429 0
192 1 9.8014 7.16557 0
193 1 21.3412 15.5966 0
194 1 28.0685 3.3058 0
ITEM: TIMESTEP
1230
ITEM: NUMBER OF ATOMS
194
ITEM: BOX BOUNDS pp pp pp
0.0000000000000000e+00 3.0000000000000000e+01
0.0000000000000000e+00 3.0000000000000000e+01
-5.0000000000000000e-01 5.0000000000000000e-01
ITEM: ATOMS id type x y z
1 1 23.1908 7.16131 0
2 1 22.1729 12.7175 0
3 1 19.2399 0.288442 0
4 1 11.2367 19.7282 0
5 1 2.54162 29.5623 0
6 1 16.6912 1.77961 0
7 1 7.85343 22.0481 0
8 1 22.4078 19.7111 0
9 1 19.698 28.4777 0
10 1 17.3576 2.55485 0
11 1 27.4639 13.139 0
12 1 4.22907 1.9245 0
13 1 17.8234 26.7387 0
14 1 29.4455 1.91981 0
15 1 19.1675 4.25692 0
16 1 7.10986 6.86413 0
17 1 2.84223 1.34611 0
18 1 22.8948 4.66203 0
19 1 21.5296 29.7702 0
20 1 4.88934 14.6506 0
21 1 10.3705 0.81268 0
22 1 19.9904 7.7931 0
23 1 2.80708 14.7647 0
24 1 24.0675 8.22802 0
25 1 27.4634 7.03103 0
26 1 10.3911 24.1286 0
27 1 5.03116 17.0709 0
28 1 25.1736 1.24857 0
29 1 18.1475 6.81291 0
30 1 18.4632 27.3775 0
31 1 8.19694 27.4465 0
32 1 0.941374 29.0171 0
33 1 18.4131 18.4222 0
34 1 0.849772 16.4122 0
35 1 13.807 0.577161 0
36 1 29.743 8.85248 0
37 1 23.6597 12.151 0
38 1 18.6095 10.8069 0
39 1 28.8937 19.4522 0
40 1 12.603 7.00782 0
41 1 0.526258 29.7518 0
42 1 3.60382 11.3564 0
43 1 3.68909 18.997 0
44 1 6.3524 29.0081 0
45 1 21.9741 25.8747 0
46 1 5.25502 2.63122 0
47 1 15.4921 18.8492 0
48 1 12.7201 1.8909 0
49 1 27.9 4.07659 0
50 1 7.20397 23.7255 0
51 1 20.4482 17.3629 0
52 1 14.8257 26.9094 0
53 1 3.67754 13.9102 0
54 1 25.5845 25.3211 0
55 1 25.309 18.4949 0
56 1 0.92853 4.92702 0
57 1 13.487 18.6332 0
58 1 6.50125 2.99487 0
59 1 11.8379 13.3946 0
60 1 27.7819 2.22244 0
61 1 24.6163 17.0568 0
62 1 23.8853 4.77111 0
63 1 25.9375 0.281149 0
64 1 16.4911 18.009 0
65 1 27.1519 24.8971 0
66 1 4.48327 11.6294 0
67 1 22.6286 24.2674 0
68 1 11.7975 16.1093 0
69 1 15.7252 0.0808045 0
70 1 8.7369 16.9928 0
71 1 1.97188 1.34842 0
72 1 16.0503 27.434 0
73 1 11.693 26.8674 0
74 1 17.6743 15.2009 0
75 1 7.96627 25.8826 0
76 1 15.789 28.5264 0
77 1 12.8724 23.7245 0
78 1 8.68994 13.9853 0
79 1 13.66 17.0417 0
80 1 6.87735 28.1084 0
81 1 29.5975 25.718 0
82 1 27.0584 26.8954 0
83 1 12.3781 18.5141 0
84 1 26.3768 5.76288 0
85 1 9.68802 2.37467 0
86 1 22.3965 18.3623 0
87 1 18.9144 21.8784 0
88 1 0.567866 23.9811 0
89 1 0.533271 19.2836 0
90 1 13.604 27.4255 0
91 1 5.65392 5.33789 0
92 1 23.2018 17.3145 0
93 1 1.47596 10.2184 0
94 1 0.403269 24.9881 0
95 1 25.5016 19.5516 0
96 1 7.28808 28.9138 0
97 1 26.9143 0.870688 0
98 1 10.733 4.60663 0
99 1 16.148 10.0959 0
100 1 20.8331 21.816 0
101 1 4.50205 23.938 0
102 1 18.6791 20.2305 0
103 1 20.8669 11.7305 0
104 1 9.11443 1.72961 0
105 1 17.9959 16.0131 0
106 1 5.99622 13.5061 0
107 1 9.55392 25.8565 0
108 1 10.1351 8.45509 0
109 1 16.6423 25.7072 0
110 1 4.54174 6.69925 0
111 1 7.5469 3.89059 0
112 1 6.20298 7.05551 0
113 1 9.5498 22.0697 0
114 1 2.14638 2.59048 0
115 1 22.7618 9.67385 0
116 1 4.65151 1.05665 0
117 1 21.0376 20.3954 0
118 1 15.9767 13.3184 0
119 1 29.0137 3.75668 0
120 1 16.1962 4.21615 0
121 1 22.8971 22.9772 0
122 1 8.03754 20.9635 0
123 1 16.7544 14.4916 0
124 1 10.3119 9.26838 0
125 1 2.49932 11.9543 0
126 1 2.44728 15.8041 0
127 1 10.2281 1.7034 0
128 1 28.4927 17.5139 0
129 1 9.98226 12.4401 0
130 1 5.51632 9.61387 0
131 1 20.1524 1.84675 0
132 1 29.0611 20.6353 0
133 1 9.18863 0.256049 0
134 1 8.97715 3.92734 0
135 1 3.36911 29.5252 0
136 1 19.6135 24.6532 0
137 1 22.6996 8.4949 0
138 1 28.715 16.132 0
139 1 3.12555 28.0714 0
140 1 0.248992 3.39853 0
141 1 26.9181 18.5809 0
142 1 2.90078 5.2417 0
143 1 20.6543 5.7309 0
144 1 3.16965 25.3612 0
145 1 13.1597 16.1216 0
146 1 29.1097 15.2913 0
147 1 2.50303 3.49313 0
148 1 13.44 22.342 0
149 1 7.80649 1.60982 0
150 1 4.13795 16.3836 0
151 1 12.9648 15.15 0
152 1 6.93448 17.0553 0
153 1 21.4201 7.21423 0
154 1 14.4054 1.98569 0
155 1 18.1141 3.97686 0
156 1 23.6322 10.338 0
157 1 15.7606 11.6552 0
158 1 18.0737 9.30715 0
159 1 14.3465 11.4455 0
160 1 23.3632 27.9439 0
161 1 20.9419 13.1278 0
162 1 19.8039 20.2623 0
163 1 0.0611446 17.9677 0
164 1 23.7404 6.18096 0
165 1 8.8718 18.9207 0
166 1 7.91857 4.95451 0
167 1 23.062 14.6483 0
168 1 21.5153 27.4689 0
169 1 4.77672 8.67894 0
170 1 27.5074 20.6012 0
171 1 5.3819 22.7867 0
172 1 29.083 0.550631 0
173 1 6.9804 10.2548 0
174 1 11.0675 2.61025 0
175 1 18.2276 11.7215 0
176 1 26.201 2.814 0
177 1 21.3875 14.2151 0
178 1 4.49281 18.2914 0
179 1 27.8215 19.024 0
180 1 0.968604 18.1346 0
181 1 4.23388 20.3649 0
182 1 9.41474 10.8723 0
183 1 25.9799 11.7622 0
184 1 23.4968 29.0418 0
185 1 15.2441 10.4476 0
186 1 21.046 24.7618 0
187 1 1.87527 17.9228 0
188 1 26.9079 28.7582 0
189 1 1.74068 27.5802 0
190 1 23.7829 19.1295 0
191 1 12.8033 3.22211 0
192 1 9.75111 7.22531 0
193 1 21.4405 15.7647 0
194 1 27.9845 3.06632 0
ITEM: TIMESTEP
1245
ITEM: NUMBER OF ATOMS
194
ITEM: BOX BOUNDS pp pp pp
0.0000000000000000e+00 3.0000000000000000e+01
0.0000000000000000e+00 3.0000000000000000e+01
-5.0000000000000000e-01 5.0000000000000000e-01
ITEM: ATOMS id type x y z
1 1 23.5475 6.77619 0
2 1 21.8733 12.9429 0
3 1 19.3458 0.153687 0
4 1 11.318 20.0039 0
5 1 2.20037 29.8846 0
6 1 16.4758 1.73164 0
7 1 7.70304 21.4553 0
8 1 21.9631 20.0143 0
9 1 19.6205 28.7208 0
10 1 17.4498 2.60476 0
11 1 27.9454 13.6628 0
12 1 4.48683 1.9859 0
13 1 18.0561 26.3135 0
14 1 28.9887 2.02316 0
15 1 18.8624 4.60134 0
16 1 6.87198 6.8151 0
17 1 2.83692 1.07747 0
18 1 23.1414 5.35697 0
19 1 21.6575 29.6945 0
20 1 4.92351 14.8603 0
21 1 10.7623 0.819803 0
22 1 20.3252 8.04771 0
23 1 3.03357 14.9835 0
24 1 24.2273 9.10497 0
25 1 27.4881 6.96318 0
26 1 10.5912 24.0442 0
27 1 5.03552 17.6457 0
28 1 24.6879 1.12646 0
29 1 17.6858 6.96411 0
30 1 18.682 27.2307 0
31 1 8.43063 27.1915 0
32 1 0.705297 29.0543 0
33 1 18.4784 18.7277 0
34 1 0.995809 16.0147 0
35 1 14.1087 0.207076 0
36 1 29.8187 8.45381 0
37 1 23.2462 12.1052 0
38 1 18.904 10.6921 0
39 1 28.7046 19.3468 0
40 1 12.9261 6.68606 0
41 1 0.371846 30.2171 0
42 1 3.38624 11.453 0
43 1 3.51406 18.8067 0
44 1 5.85376 29.056 0
45 1 21.9809 25.4896 0
46 1 4.99901 2.73432 0
47 1 15.4364 18.8326 0
48 1 12.8541 2.06697 0
49 1 27.7582 3.96694 0
50 1 7.02799 23.6284 0
51 1 20.5458 17.2681 0
52 1 14.8217 27.2019 0
53 1 3.55698 13.5705 0
54 1 26.1427 25.3628 0
55 1 25.2348 18.4657 0
56 1 0.503896 4.75214 0
57 1 13.8628 18.4363 0
58 1 6.39153 2.94371 0
59 1 12.1012 13.574 0
60 1 27.3506 2.16819 0
61 1 24.8383 16.8687 0
62 1 24.0713 4.79076 0
63 1 25.5752 0.304607 0
64 1 16.8024 18.1291 0
65 1 27.1499 25.0869 0
66 1 4.55678 12.1072 0
67 1 22.8007 24.3353 0
68 1 11.5814 15.7944 0
69 1 15.8881 29.7894 0
70 1 8.90115 16.9833 0
71 1 1.60242 0.958481 0
72 1 16.2348 27.6915 0
73 1 11.528 27.0837 0
74 1 17.7111 14.9466 0
75 1 8.00638 26.1669 0
76 1 15.7956 28.4885 0
77 1 12.727 23.2424 0
78 1 8.46994 14.4362 0
79 1 13.3212 17.2096 0
80 1 6.58584 28.4584 0
81 1 29.5417 25.5611 0
82 1 26.9993 27.0773 0
83 1 12.4037 18.1983 0
84 1 26.3985 5.62501 0
85 1 9.97512 2.74299 0
86 1 22.7517 18.296 0
87 1 19.0027 21.641 0
88 1 0.27804 23.761 0
89 1 0.566864 19.1983 0
90 1 13.1716 27.2894 0
91 1 5.63598 5.72114 0
92 1 23.1616 17.5031 0
93 1 1.15361 10.3382 0
94 1 0.586032 24.6778 0
95 1 25.7165 19.5854 0
96 1 7.24934 29.309 0
97 1 27.2643 0.713729 0
98 1 10.5052 4.8009 0
99 1 16.051 10.243 0
100 1 20.8402 21.8037 0
101 1 4.27965 24.1614 0
102 1 18.2328 20.3984 0
103 1 21.11 11.3974 0
104 1 9.15298 1.69897 0
105 1 18.045 16.1467 0
106 1 6.04619 13.5932 0
107 1 9.44887 25.411 0
108 1 10.0213 8.15913 0
109 1 16.9796 25.6306 0
110 1 4.85685 6.45502 0
111 1 7.87792 3.74693 0
112 1 5.94805 7.25627 0
113 1 9.15857 22.0231 0
114 1 1.91993 2.96771 0
115 1 22.7228 9.49236 0
116 1 5.08423 1.20203 0
117 1 20.9655 20.5205 0
118 1 16.0475 13.4389 0
119 1 29.2134 3.92767 0
120 1 16.0422 4.19049 0
121 1 22.7137 23.1386 0
122 1 8.57851 20.8399 0
123 1 16.7468 13.9809 0
124 1 10.3063 9.59737 0
125 1 2.73037 12.1185 0
126 1 2.52487 15.9438 0
127 1 10.0217 1.66213 0
128 1 28.5967 17.3068 0
129 1 10.1123 12.1748 0
130 1 5.12689 9.81096 0
131 1 20.0922 1.66547 0
132 1 29.3572 20.6803 0
133 1 9.30815 0.179172 0
134 1 8.96227 3.95726 0
135 1 3.48726 29.6743 0
136 1 19.3898 24.9088 0
137 1 22.717 8.33478 0
138 1 28.2102 16.2736 0
139 1 3.32452 28.0641 0
140 1 0.32983 3.10391 0
141 1 26.9212 18.3862 0
142 1 3.49111 5.28159 0
143 1 20.5717 5.87066 0
144 1 3.36296 25.036 0
145 1 13.3185 16.1193 0
146 1 29.091 15.2717 0
147 1 2.84814 3.54775 0
148 1 13.5185 22.7559 0
149 1 8.27027 1.49981 0
150 1 4.45311 16.4267 0
151 1 12.5486 14.923 0
152 1 7.29941 17.1895 0
153 1 21.3028 6.84027 0
154 1 14.496 2.04129 0
155 1 17.9236 4.04431 0
156 1 23.4768 10.2507 0
157 1 15.6033 11.4649 0
158 1 17.9243 9.03639 0
159 1 14.7406 11.2388 0
160 1 23.5583 27.9749 0
161 1 21.2148 13.535 0
162 1 19.6078 20.3349 0
163 1 -0.0490483 18.0458 0
164 1 23.8807 5.65558 0
165 1 9.08816 18.9304 0
166 1 7.81891 5.10624 0
167 1 22.7755 14.6357 0
168 1 22.0054 27.469 0
169 1 4.88089 8.85769 0
170 1 27.2894 20.2742 0
171 1 4.98563 22.667 0
172 1 28.492 0.627228 0
173 1 6.6274 10.2822 0
174 1 10.9522 2.71515 0
175 1 18.3522 11.6914 0
176 1 26.1826 2.52786 0
177 1 21.5478 14.4202 0
178 1 4.39282 18.3912 0
179 1 27.8607 19.0907 0
180 1 0.965704 18.02 0
181 1 4.66096 20.5864 0
182 1 8.91196 11.2687 0
183 1 26.016 11.6682 0
184 1 23.4991 28.9355 0
185 1 15.1134 10.4548 0
186 1 20.9566 24.3819 0
187 1 1.83686 17.5643 0
188 1 27.0212 28.7177 0
189 1 1.5051 27.2211 0
190 1 23.8417 19.2784 0
191 1 13.0134 2.90751 0
192 1 9.70092 7.28584 0
193 1 21.5398 15.931 0
194 1 28.0299 3.13853 0
ITEM: TIMESTEP
1260
ITEM: NUMBER OF ATOMS
194
ITEM: BOX BOUNDS pp pp pp
0.0000000000000000e+00 3.0000000000000000e+01
0.0000000000000000e+00 3.0000000000000000e+01
-5.0000000000000000e-01 5.0000000000000000e-01
ITEM: ATOMS id type x y z
1 1 23.9013 6.39181 0
2 1 22.0052 12.8599 0
3 1 19.453 0.0171486 0
4 1 11.3993 20.2793 0
5 1 1.89329 0.161304 0
6 1 16.2624 1.68573 0
7 1 7.40788 21.0736 0
8 1 21.5873 20.2814 0
9 1 19.5421 28.9661 0
10 1 17.5401 2.655 0
11 1 28.4273 14.1873 0
12 1 4.27836 1.81215 0
13 1 18.2698 25.8658 0
14 1 28.5288 2.12628 0
15 1 18.5614 4.94777 0
16 1 6.72587 6.73142 0
17 1 2.843 0.804397 0
18 1 22.9068 5.8944 0
19 1 21.7856 29.6183 0
20 1 4.95686 15.0701 0
21 1 11.2228 0.67276 0
22 1 20.6614 8.30068 0
23 1 3.26455 15.1952 0
24 1 24.3833 9.9834 0
25 1 27.5121 6.89447 0
26 1 10.7908 23.9603 0
27 1 5.13782 18.1331 0
28 1 24.2064 1.00102 0
29 1 17.2241 7.11567 0
30 1 18.9187 27.1049 0
31 1 8.70172 26.9852 0
32 1 0.504324 29.0182 0
33 1 18.543 19.0345 0
34 1 1.14421 15.6185 0
35 1 14.4113 29.8376 0
36 1 29.8945 8.05527 0
37 1 22.8307 12.0599 0
38 1 19.1993 10.5745 0
39 1 28.9011 19.3691 0
40 1 13.2491 6.36431 0
41 1 0.185143 0.757514 0
42 1 3.26212 11.4358 0
43 1 3.27243 18.6469 0
44 1 5.24989 29.2029 0
45 1 21.9882 25.1003 0
46 1 5.0995 3.28868 0
47 1 15.381 18.8144 0
48 1 12.9077 1.86884 0
49 1 27.5378 4.15297 0
50 1 6.85191 23.531 0
51 1 20.6443 17.1723 0
52 1 14.8196 27.4968 0
53 1 3.43584 13.2311 0
54 1 26.4431 25.4765 0
55 1 25.1614 18.4394 0
56 1 0.0831185 4.57857 0
57 1 14.2358 18.2358 0
58 1 6.27887 2.89253 0
59 1 12.3652 13.7545 0
60 1 26.9116 1.97371 0
61 1 25.0597 16.6823 0
62 1 24.342 4.48981 0
63 1 25.2107 0.331981 0
64 1 17.1126 18.2507 0
65 1 27.4061 25.2055 0
66 1 4.62957 12.5856 0
67 1 22.9696 24.401 0
68 1 11.3699 15.4768 0
69 1 16.0506 29.4964 0
70 1 9.06373 16.9745 0
71 1 1.16596 0.617166 0
72 1 16.4949 27.8092 0
73 1 11.3646 27.3001 0
74 1 17.7438 14.6831 0
75 1 8.01029 26.402 0
76 1 15.7229 28.5901 0
77 1 12.4834 22.8035 0
78 1 8.24995 14.8872 0
79 1 13.009 17.3687 0
80 1 6.34251 28.6255 0
81 1 29.4891 25.4011 0
82 1 26.9401 27.2599 0
83 1 12.4096 17.9043 0
84 1 26.4209 5.48772 0
85 1 10.0926 3.21943 0
86 1 22.9913 18.4952 0
87 1 19.0916 21.3985 0
88 1 -0.0315389 23.4338 0
89 1 0.598996 19.1039 0
90 1 12.7392 27.1529 0
91 1 5.86241 5.93723 0
92 1 23.2402 17.4291 0
93 1 0.831284 10.4581 0
94 1 0.785336 24.4777 0
95 1 25.9316 19.6152 0
96 1 7.26801 29.7883 0
97 1 27.2305 0.535889 0
98 1 10.2765 4.99416 0
99 1 16.1013 10.3538 0
100 1 20.8471 21.7859 0
101 1 4.15752 24.3063 0
102 1 17.7921 20.5672 0
103 1 21.3538 11.0658 0
104 1 9.28554 1.85159 0
105 1 18.0977 16.2901 0
106 1 6.09506 13.681 0
107 1 9.34286 24.9657 0
108 1 9.98808 8.06648 0
109 1 17.3191 25.556 0
110 1 4.93187 6.38298 0
111 1 8.17539 3.59422 0
112 1 5.59618 7.48603 0
113 1 8.76413 21.9721 0
114 1 1.66987 3.3175 0
115 1 22.6781 9.30009 0
116 1 5.62967 1.13142 0
117 1 20.82 20.6854 0
118 1 15.6208 13.0951 0
119 1 29.4063 4.09144 0
120 1 15.8889 4.16451 0
121 1 22.5303 23.305 0
122 1 9.26756 20.5093 0
123 1 17.2369 13.9334 0
124 1 10.3018 9.93282 0
125 1 2.869 12.3984 0
126 1 2.59757 16.0897 0
127 1 10.2039 1.68558 0
128 1 28.703 17.1021 0
129 1 10.2407 11.908 0
130 1 4.74907 10.0577 0
131 1 20.0314 1.48302 0
132 1 29.6519 20.7219 0
133 1 9.42897 0.107513 0
134 1 8.98104 3.99902 0
135 1 3.62459 29.8228 0
136 1 19.1668 25.1649 0
137 1 22.736 8.17726 0
138 1 27.7049 16.4157 0
139 1 3.52302 28.0586 0
140 1 0.408727 2.81203 0
141 1 26.923 18.1923 0
142 1 4.08219 5.32156 0
143 1 20.4733 5.99799 0
144 1 3.45669 24.7881 0
145 1 13.4724 16.1063 0
146 1 29.0717 15.2512 0
147 1 3.21538 3.62924 0
148 1 13.695 23.1267 0
149 1 8.1961 1.21744 0
150 1 4.76983 16.4718 0
151 1 12.1295 14.7001 0
152 1 7.66593 17.3236 0
153 1 21.2005 6.4804 0
154 1 14.5843 2.09668 0
155 1 17.7277 4.10755 0
156 1 23.329 10.1692 0
157 1 15.795 11.3555 0
158 1 17.7751 8.76592 0
159 1 14.6536 11.2853 0
160 1 23.7589 27.9217 0
161 1 20.9762 14.1049 0
162 1 19.4109 20.411 0
163 1 29.7016 18.1188 0
164 1 24.4196 5.60893 0
165 1 9.30441 18.9402 0
166 1 7.72002 5.25338 0
167 1 22.5429 14.6197 0
168 1 22.4974 27.4697 0
169 1 4.97568 8.98706 0
170 1 27.0726 19.9424 0
171 1 4.58882 22.5485 0
172 1 28.2845 0.729909 0
173 1 6.27242 10.3088 0
174 1 10.9905 2.7877 0
175 1 18.4759 11.6637 0
176 1 26.127 2.25425 0
177 1 21.7349 14.775 0
178 1 4.25978 18.5444 0
179 1 27.5145 19.035 0
180 1 1.04003 17.9467 0
181 1 5.08783 20.8075 0
182 1 8.41096 11.6662 0
183 1 26.0521 11.5742 0
184 1 23.4937 28.913 0
185 1 14.9678 10.1643 0
186 1 20.8685 24.004 0
187 1 1.85838 17.1766 0
188 1 27.1344 28.6763 0
189 1 1.26982 26.8626 0
190 1 23.8995 19.4242 0
191 1 13.3057 2.96637 0
192 1 9.56876 7.13684 0
193 1 21.639 16.0952 0
194 1 28.2075 3.03935 0
ITEM: TIMESTEP
1275
ITEM: NUMBER OF ATOMS
194
ITEM: BOX BOUNDS pp pp pp
0.0000000000000000e+00 3.0000000000000000e+01
0.0000000000000000e+00 3.0000000000000000e+01
-5.0000000000000000e-01 5.0000000000000000e-01
ITEM: ATOMS id type x y z
1 1 24.1671 6.11228 0
2 1 22.1176 12.811 0
3 1 19.5626 29.9992 0
4 1 11.4802 20.5547 0
5 1 1.86196 0.230949 0
6 1 16.0493 1.6411 0
7 1 7.11478 20.6924 0
8 1 21.4896 20.4035 0
9 1 19.4622 29.0943 0
10 1 17.629 2.70711 0
11 1 28.837 14.5476 0
12 1 4.07087 1.63754 0
13 1 18.3243 25.6045 0
14 1 28.0874 2.07299 0
15 1 18.2583 5.29163 0
16 1 6.62182 6.72357 0
17 1 2.85123 0.528188 0
18 1 22.6422 6.42585 0
19 1 21.9142 29.5418 0
20 1 4.98898 15.2828 0
21 1 11.6803 0.528571 0
22 1 20.9984 8.55293 0
23 1 3.49743 15.4057 0
24 1 24.5419 10.8603 0
25 1 27.5355 6.82507 0
26 1 10.99 23.8768 0
27 1 5.35862 18.541 0
28 1 23.7291 0.872635 0
29 1 16.7629 7.26825 0
30 1 19.1537 26.9756 0
31 1 9.10908 26.9155 0
32 1 0.304162 28.9847 0
33 1 18.6067 19.3432 0
34 1 1.29513 15.2239 0
35 1 14.7161 29.4672 0
36 1 29.9703 7.65675 0
37 1 22.434 11.9804 0
38 1 19.492 10.4606 0
39 1 29.1021 19.3911 0
40 1 13.5722 6.04255 0
41 1 -0.0878693 1.33473 0
42 1 3.17951 11.3563 0
43 1 2.97755 18.4947 0
44 1 4.64417 29.3518 0
45 1 21.998 24.7061 0
46 1 5.20399 3.84089 0
47 1 15.3234 18.7945 0
48 1 12.94 1.5846 0
49 1 27.315 4.34687 0
50 1 6.67582 23.4335 0
51 1 20.7449 17.0742 0
52 1 14.8208 27.795 0
53 1 3.56251 13.178 0
54 1 26.4433 25.6745 0
55 1 25.0892 18.4163 0
56 1 0.129306 4.75065 0
57 1 14.609 18.0346 0
58 1 6.16142 2.84248 0
59 1 12.6523 13.8803 0
60 1 26.8475 1.64495 0
61 1 25.2809 16.4971 0
62 1 24.6245 4.0826 0
63 1 24.8424 0.362391 0
64 1 17.4234 18.3732 0
65 1 27.963 25.2409 0
66 1 4.69773 13.0653 0
67 1 23.1328 24.4652 0
68 1 11.1351 15.1853 0
69 1 16.2727 29.3188 0
70 1 9.2231 16.9668 0
71 1 0.540511 0.444506 0
72 1 16.772 27.9018 0
73 1 11.205 27.516 0
74 1 17.9203 14.6711 0
75 1 7.87841 26.4998 0
76 1 15.5678 28.5993 0
77 1 12.2156 22.3714 0
78 1 8.02997 15.3383 0
79 1 13.0941 17.1747 0
80 1 6.10159 28.7938 0
81 1 29.4379 25.2397 0
82 1 26.8813 27.445 0
83 1 12.0224 17.9608 0
84 1 26.444 5.35016 0
85 1 10.0681 3.73443 0
86 1 23.1963 18.7966 0
87 1 19.1537 21.2805 0
88 1 29.66 23.1077 0
89 1 0.628646 19.0017 0
90 1 12.3034 27.017 0
91 1 6.32199 5.89745 0
92 1 23.3571 17.2561 0
93 1 0.50895 10.5779 0
94 1 0.981874 24.2779 0
95 1 26.0589 19.6277 0
96 1 7.28392 0.26549 0
97 1 26.6601 0.320761 0
98 1 10.0463 5.18536 0
99 1 16.1655 10.4096 0
100 1 20.861 21.7917 0
101 1 4.46166 24.1351 0
102 1 17.3553 20.736 0
103 1 21.5987 10.735 0
104 1 9.48415 2.09322 0
105 1 18.1499 16.432 0
106 1 6.14281 13.7691 0
107 1 9.23713 24.5205 0
108 1 10.0079 8.10288 0
109 1 17.5195 25.4551 0
110 1 4.73 6.49489 0
111 1 8.31332 3.36416 0
112 1 5.24395 7.70937 0
113 1 8.36863 21.9181 0
114 1 1.41805 3.66666 0
115 1 22.6299 9.10305 0
116 1 6.17389 1.06168 0
117 1 20.384 20.9709 0
118 1 15.1942 12.7499 0
119 1 29.1311 3.90524 0
120 1 15.7365 4.1383 0
121 1 22.3473 23.4767 0
122 1 9.95559 20.1792 0
123 1 17.5836 13.6362 0
124 1 10.2972 10.2683 0
125 1 2.72392 12.4537 0
126 1 2.66815 16.2369 0
127 1 10.518 1.6915 0
128 1 28.8091 16.8987 0
129 1 10.3683 11.6404 0
130 1 4.37371 10.3215 0
131 1 19.9698 1.29865 0
132 1 29.9458 20.761 0
133 1 9.54956 0.038917 0
134 1 9.16229 4.11855 0
135 1 3.75999 29.9733 0
136 1 19.2441 25.2646 0
137 1 22.755 8.01953 0
138 1 27.2026 16.5586 0
139 1 3.72184 28.0543 0
140 1 0.489233 2.52285 0
141 1 26.9094 17.9751 0
142 1 4.6757 5.36393 0
143 1 20.1682 5.99394 0
144 1 3.12432 24.8553 0
145 1 13.6241 16.0974 0
146 1 29.1239 15.3963 0
147 1 3.58141 3.71031 0
148 1 13.8954 23.4909 0
149 1 7.93121 0.866802 0
150 1 5.08668 16.5145 0
151 1 11.7114 14.5062 0
152 1 8.03574 17.4568 0
153 1 21.3057 6.25248 0
154 1 14.6708 2.15276 0
155 1 17.5331 4.17057 0
156 1 23.1813 10.0945 0
157 1 16.1029 11.3282 0
158 1 17.6254 8.49466 0
159 1 14.4084 11.3971 0
160 1 23.9643 27.8252 0
161 1 20.6708 14.5891 0
162 1 19.2421 20.3607 0
163 1 29.4548 18.1947 0
164 1 25.0644 5.57038 0
165 1 9.52065 18.9517 0
166 1 7.62097 5.39958 0
167 1 22.7465 14.5362 0
168 1 22.9933 27.4724 0
169 1 5.07093 9.0991 0
170 1 26.8903 19.7303 0
171 1 4.1921 22.4301 0
172 1 28.6133 0.876878 0
173 1 5.91477 10.3346 0
174 1 11.1647 2.81629 0
175 1 18.6021 11.6321 0
176 1 25.701 2.11242 0
177 1 21.5516 15.2855 0
178 1 4.06086 18.7676 0
179 1 27.2333 18.8955 0
180 1 1.10353 17.8821 0
181 1 5.51466 21.0292 0
182 1 7.91079 12.0639 0
183 1 26.0881 11.4801 0
184 1 23.4792 28.9323 0
185 1 14.8506 9.78293 0
186 1 20.7825 23.6273 0
187 1 1.88498 16.7838 0
188 1 27.2471 28.6322 0
189 1 1.03439 26.5042 0
190 1 23.9559 19.5655 0
191 1 13.6216 3.11005 0
192 1 9.38372 6.85927 0
193 1 21.7371 16.258 0
194 1 28.3678 3.08595 0
ITEM: TIMESTEP
1290
ITEM: NUMBER OF ATOMS
194
ITEM: BOX BOUNDS pp pp pp
0.0000000000000000e+00 3.0000000000000000e+01
0.0000000000000000e+00 3.0000000000000000e+01
-5.0000000000000000e-01 5.0000000000000000e-01
ITEM: ATOMS id type x y z
1 1 24.3808 5.87895 0
2 1 22.1517 12.9474 0
3 1 19.6874 0.230037 0
4 1 11.5595 20.8301 0
5 1 1.8141 0.291081 0
6 1 15.834 1.5978 0
7 1 6.82066 20.3126 0
8 1 21.401 20.5222 0
9 1 19.3672 28.9734 0
10 1 17.7172 2.76184 0
11 1 29.0516 14.4316 0
12 1 3.8625 1.46059 0
13 1 18.5245 25.6442 0
14 1 27.6461 1.90884 0
15 1 17.9529 5.63198 0
16 1 6.64977 6.99282 0
17 1 2.86473 0.26465 0
18 1 22.3764 6.95798 0
19 1 22.0441 29.4647 0
20 1 5.01899 15.4997 0
21 1 12.1379 0.386779 0
22 1 21.3376 8.80544 0
23 1 3.73054 15.6187 0
24 1 24.6998 11.7367 0
25 1 27.5584 6.755 0
26 1 11.1889 23.7931 0
27 1 5.57736 18.9487 0
28 1 23.2566 0.741503 0
29 1 16.3032 7.4228 0
30 1 19.3877 26.8436 0
31 1 9.52009 26.8489 0
32 1 0.104661 28.9546 0
33 1 18.59 19.5555 0
34 1 1.4475 14.8313 0
35 1 14.9633 29.1699 0
36 1 0.0460402 7.25823 0
37 1 22.1147 11.7136 0
38 1 19.7833 10.3491 0
39 1 29.3063 19.4093 0
40 1 13.8952 5.72079 0
41 1 29.5822 1.94403 0
42 1 3.09719 11.2801 0
43 1 2.67452 18.3418 0
44 1 4.15667 29.3534 0
45 1 21.9931 24.3782 0
46 1 5.30917 4.39222 0
47 1 15.2797 18.7943 0
48 1 12.9722 1.30116 0
49 1 27.0941 4.53908 0
50 1 6.49969 23.3359 0
51 1 20.8493 16.9724 0
52 1 14.7495 28.0289 0
53 1 3.86481 13.3331 0
54 1 26.4456 25.8726 0
55 1 25.0176 18.3957 0
56 1 0.268676 4.99159 0
57 1 14.9674 17.8129 0
58 1 6.0413 2.79415 0
59 1 12.9502 13.9884 0
60 1 26.8163 1.30182 0
61 1 25.5028 16.3129 0
62 1 24.9077 3.67797 0
63 1 24.4702 0.395149 0
64 1 17.7359 18.4971 0
65 1 28.5172 25.2774 0
66 1 4.77889 13.5475 0
67 1 23.289 24.5262 0
68 1 10.7636 15.0551 0
69 1 16.551 29.2222 0
70 1 9.37781 16.961 0
71 1 -0.0398764 0.240364 0
72 1 17.0445 27.9988 0
73 1 11.0494 27.7298 0
74 1 18.1521 14.7707 0
75 1 7.74322 26.5944 0
76 1 15.4911 28.5145 0
77 1 11.9479 21.9391 0
78 1 7.81016 15.7899 0
79 1 13.2125 16.9522 0
80 1 5.85894 28.9638 0
81 1 29.3884 25.0773 0
82 1 26.8236 27.6336 0
83 1 11.6041 18.0437 0
84 1 26.4882 5.2063 0
85 1 10.1886 4.20762 0
86 1 23.3822 19.0758 0
87 1 19.144 21.402 0
88 1 29.3524 22.7827 0
89 1 0.655538 18.8937 0
90 1 11.8633 26.883 0
91 1 6.64198 5.58051 0
92 1 23.4737 17.0855 0
93 1 0.186616 10.6978 0
94 1 1.17707 24.0781 0
95 1 25.7375 19.5765 0
96 1 6.95081 0.291823 0
97 1 26.0906 0.109832 0
98 1 9.81338 5.37126 0
99 1 16.2413 10.3127 0
100 1 20.9134 21.8737 0
101 1 4.76842 23.961 0
102 1 16.9202 20.9044 0
103 1 21.8465 10.4055 0
104 1 9.66606 2.34065 0
105 1 18.2019 16.5732 0
106 1 6.18874 13.857 0
107 1 9.13191 24.0752 0
108 1 10.0264 8.13672 0
109 1 17.1595 25.2572 0
110 1 4.53198 6.60765 0
111 1 8.43371 3.12196 0
112 1 4.89081 7.93066 0
113 1 7.9724 21.8632 0
114 1 1.16337 4.01484 0
115 1 22.5797 8.91237 0
116 1 6.62687 1.11904 0
117 1 19.9305 21.1719 0
118 1 14.7671 12.4017 0
119 1 28.9212 3.84565 0
120 1 15.5848 4.1118 0
121 1 22.1827 23.5843 0
122 1 10.6437 19.8458 0
123 1 17.875 13.2282 0
124 1 10.2893 10.5891 0
125 1 2.39329 12.295 0
126 1 2.84188 16.3285 0
127 1 10.8516 1.69638 0
128 1 28.9109 16.7034 0
129 1 10.4991 11.3872 0
130 1 4.0004 10.5837 0
131 1 19.9081 1.11427 0
132 1 0.239002 20.7982 0
133 1 9.66976 29.9717 0
134 1 9.22039 4.29448 0
135 1 3.79609 0.263667 0
136 1 19.7376 25.1632 0
137 1 22.774 7.85505 0
138 1 26.7008 16.7041 0
139 1 3.92167 28.0523 0
140 1 0.572646 2.2356 0
141 1 26.8665 17.6715 0
142 1 5.27099 5.40764 0
143 1 19.8291 5.97321 0
144 1 2.78911 24.9243 0
145 1 13.7746 16.0912 0
146 1 29.375 16.0121 0
147 1 3.94901 3.79166 0
148 1 14.0952 23.8548 0
149 1 8.10719 0.840022 0
150 1 5.40272 16.5528 0
151 1 11.4194 14.169 0
152 1 8.41025 17.5881 0
153 1 21.4485 6.04227 0
154 1 14.7569 2.21003 0
155 1 17.3403 4.23438 0
156 1 23.0337 10.0204 0
157 1 16.3932 11.4529 0
158 1 17.4741 8.22147 0
159 1 14.1669 11.509 0
160 1 24.2556 27.7632 0
161 1 20.3641 15.0718 0
162 1 19.1923 20.1788 0
163 1 29.2094 18.2743 0
164 1 25.7371 5.49021 0
165 1 9.73836 18.9668 0
166 1 7.52531 5.54653 0
167 1 22.9648 14.4482 0
168 1 23.4026 27.4454 0
169 1 5.16639 9.21296 0
170 1 27.0596 19.7996 0
171 1 3.79585 22.3124 0
172 1 28.943 1.02914 0
173 1 5.55345 10.3579 0
174 1 11.334 2.8417 0
175 1 18.7301 11.5983 0
176 1 25.2451 1.981 0
177 1 21.3216 15.7072 0
178 1 3.87133 18.9908 0
179 1 27.0774 18.62 0
180 1 1.16656 17.8192 0
181 1 5.94291 21.2506 0
182 1 7.41065 12.4617 0
183 1 26.1226 11.3857 0
184 1 23.4644 28.9483 0
185 1 14.7362 9.40497 0
186 1 20.6997 23.2507 0
187 1 1.80739 16.4462 0
188 1 27.3583 28.5847 0
189 1 0.798663 26.1453 0
190 1 24.0335 19.7254 0
191 1 13.9394 3.24978 0
192 1 9.20035 6.58342 0
193 1 21.8649 16.5185 0
194 1 28.3683 3.04192 0
ITEM: TIMESTEP
1305
ITEM: NUMBER OF ATOMS
194
ITEM: BOX BOUNDS pp pp pp
0.0000000000000000e+00 3.0000000000000000e+01
0.0000000000000000e+00 3.0000000000000000e+01
-5.0000000000000000e-01 5.0000000000000000e-01
ITEM: ATOMS id type x y z
1 1 24.5983 5.64445 0
2 1 22.1827 13.0974 0
3 1 19.746 0.165081 0
4 1 11.5575 20.8141 0
5 1 1.74619 0.350725 0
6 1 15.6156 1.55629 0
7 1 6.52341 19.9358 0
8 1 21.309 20.6449 0
9 1 19.2723 28.8509 0
10 1 17.8046 2.81879 0
11 1 29.2663 14.316 0
12 1 3.63918 1.48095 0
13 1 18.7407 25.6875 0
14 1 27.2405 1.77829 0
15 1 17.6471 5.97032 0
16 1 6.679 7.26436 0
17 1 2.80282 0.000636354 0
18 1 21.9827 7.32648 0
19 1 22.1772 29.3877 0
20 1 5.04425 15.7163 0
21 1 12.5906 0.238009 0
22 1 21.6726 9.06141 0
23 1 3.96815 15.8316 0
24 1 24.8599 12.6125 0
25 1 27.5808 6.68408 0
26 1 11.3876 23.7091 0
27 1 5.79521 19.3571 0
28 1 22.7887 0.607291 0
29 1 15.8463 7.57921 0
30 1 19.6202 26.7084 0
31 1 9.93108 26.7828 0
32 1 -0.0953371 28.9295 0
33 1 18.2851 19.445 0
34 1 1.60032 14.4405 0
35 1 14.9237 29.2301 0
36 1 0.12185 6.85949 0
37 1 21.7985 11.4294 0
38 1 20.0741 10.2387 0
39 1 29.5138 19.4248 0
40 1 14.2184 5.39884 0
41 1 29.2368 2.54581 0
42 1 2.95221 11.248 0
43 1 2.37264 18.1895 0
44 1 3.81703 29.1347 0
45 1 21.8692 24.5527 0
46 1 5.37585 4.76499 0
47 1 15.2477 18.8192 0
48 1 13.0086 1.02587 0
49 1 27.285 4.21906 0
50 1 6.32286 23.2382 0
51 1 20.9508 16.8776 0
52 1 14.4536 28.089 0
53 1 4.06349 13.4604 0
54 1 26.4485 26.0715 0
55 1 24.9469 18.3794 0
56 1 0.409133 5.23003 0
57 1 15.3136 17.5655 0
58 1 5.92101 2.74582 0
59 1 13.2456 14.0972 0
60 1 26.7512 0.92498 0
61 1 25.6784 16.087 0
62 1 25.1914 3.27301 0
63 1 24.0942 0.429153 0
64 1 18.0463 18.6132 0
65 1 28.7191 25.4301 0
66 1 4.96587 14.0578 0
67 1 23.4386 24.5848 0
68 1 10.3698 14.9529 0
69 1 16.8255 29.1187 0
70 1 9.53079 16.956 0
71 1 29.3786 0.0347799 0
72 1 17.3134 28.1007 0
73 1 10.896 27.9399 0
74 1 18.3838 14.8689 0
75 1 7.60915 26.6892 0
76 1 15.9334 28.2481 0
77 1 11.7586 21.7957 0
78 1 7.5908 16.2424 0
79 1 13.3063 16.7637 0
80 1 5.61601 29.135 0
81 1 29.6922 24.7993 0
82 1 26.7608 27.8148 0
83 1 11.1857 18.1269 0
84 1 26.7355 5.33075 0
85 1 10.4644 4.65206 0
86 1 23.4631 19.2486 0
87 1 18.7017 21.6497 0
88 1 29.0451 22.4577 0
89 1 0.679815 18.7823 0
90 1 11.4199 26.7523 0
91 1 6.67419 5.24025 0
92 1 23.5897 16.9151 0
93 1 -0.135718 10.8176 0
94 1 1.37241 23.879 0
95 1 25.4026 19.5195 0
96 1 6.77797 -0.245117 0
97 1 25.5216 -0.0975915 0
98 1 9.5792 5.54912 0
99 1 16.3164 10.2034 0
100 1 20.9674 21.9579 0
101 1 5.07552 23.7862 0
102 1 16.4856 21.0725 0
103 1 22.0736 10.0816 0
104 1 9.84988 2.58853 0
105 1 18.2538 16.714 0
106 1 6.23174 13.9437 0
107 1 9.02698 23.6299 0
108 1 10.0444 8.16967 0
109 1 16.7876 25.057 0
110 1 4.33702 6.72128 0
111 1 8.55897 2.88116 0
112 1 4.538 8.15233 0
113 1 7.5751 21.8081 0
114 1 0.906224 4.36426 0
115 1 22.5335 8.73743 0
116 1 6.78413 1.64898 0
117 1 19.9086 21.2399 0
118 1 14.4398 12.1807 0
119 1 28.9532 4.09817 0
120 1 15.433 4.08474 0
121 1 22.1404 23.1905 0
122 1 11.3312 19.5112 0
123 1 18.1672 12.8216 0
124 1 10.1526 10.4678 0
125 1 2.06685 12.1327 0
126 1 3.07846 16.398 0
127 1 11.1842 1.70729 0
128 1 28.7243 16.8729 0
129 1 10.7587 11.576 0
130 1 3.68935 10.8053 0
131 1 19.9126 1.22701 0
132 1 0.531469 20.834 0
133 1 9.78942 29.9052 0
134 1 9.12182 4.50401 0
135 1 3.79406 0.57369 0
136 1 20.2285 25.0637 0
137 1 22.9196 7.83977 0
138 1 26.1822 16.742 0
139 1 4.12235 28.0547 0
140 1 0.668309 1.95457 0
141 1 26.8651 17.4295 0
142 1 5.89729 5.63423 0
143 1 19.4915 5.95256 0
144 1 2.45335 24.9929 0
145 1 13.9497 16.0517 0
146 1 29.9148 16.2649 0
147 1 4.31932 3.87414 0
148 1 14.295 24.2187 0
149 1 8.41806 0.9038 0
150 1 5.7187 16.5908 0
151 1 11.1522 13.8033 0
152 1 8.78655 17.7186 0
153 1 21.5927 5.83502 0
154 1 14.8432 2.26943 0
155 1 17.1481 4.29801 0
156 1 22.9051 9.93759 0
157 1 16.6828 11.5898 0
158 1 17.3201 7.94646 0
159 1 13.8264 11.4931 0
160 1 24.7398 27.7763 0
161 1 20.0592 15.5563 0
162 1 19.4351 20.3307 0
163 1 28.9656 18.3551 0
164 1 25.7919 5.65463 0
165 1 9.95955 18.9845 0
166 1 7.72022 5.71123 0
167 1 23.182 14.3596 0
168 1 23.6172 27.3487 0
169 1 5.26148 9.32545 0
170 1 27.2368 19.8802 0
171 1 3.39996 22.1951 0
172 1 29.2745 1.1833 0
173 1 5.18888 10.379 0
174 1 11.4997 2.86254 0
175 1 18.8585 11.564 0
176 1 24.7902 1.84888 0
177 1 21.0427 16.0215 0
178 1 3.67969 19.2121 0
179 1 26.9451 18.4239 0
180 1 1.23023 17.759 0
181 1 6.37458 21.4691 0
182 1 6.90988 12.8603 0
183 1 26.1546 11.2917 0
184 1 23.4494 28.9615 0
185 1 14.6227 9.02781 0
186 1 20.6199 22.873 0
187 1 1.66561 16.1315 0
188 1 27.4742 28.5441 0
189 1 0.562076 25.7853 0
190 1 24.2193 19.9895 0
191 1 14.2607 3.386 0
192 1 9.01729 6.30694 0
193 1 22.0445 16.8777 0
194 1 28.1266 2.68105 0
ITEM: TIMESTEP
1320
ITEM: NUMBER OF ATOMS
194
ITEM: BOX BOUNDS pp pp pp
0.0000000000000000e+00 3.0000000000000000e+01
0.0000000000000000e+00 3.0000000000000000e+01
-5.0000000000000000e-01 5.0000000000000000e-01
ITEM: ATOMS id type x y z
1 1 24.8143 5.40812 0
2 1 22.2144 13.2472 0
3 1 19.7741 29.954 0
4 1 11.4363 20.3384 0
5 1 1.67591 0.410957 0
6 1 15.4127 1.49683 0
7 1 6.74736 19.895 0
8 1 21.2131 20.7728 0
9 1 19.1784 28.7318 0
10 1 17.8913 2.87724 0
11 1 29.4812 14.2008 0
12 1 3.37063 1.969 0
13 1 18.9611 25.7332 0
14 1 26.8764 1.70417 0
15 1 17.3414 6.30832 0
16 1 6.70796 7.53396 0
17 1 2.73463 29.732 0
18 1 21.4874 7.58821 0
19 1 22.3163 29.3129 0
20 1 5.09718 15.9261 0
21 1 12.9462 29.8829 0
22 1 21.7881 9.12057 0
23 1 4.19294 16.0385 0
24 1 25.0207 13.4879 0
25 1 27.6018 6.61112 0
26 1 11.5862 23.6245 0
27 1 5.49109 19.4324 0
28 1 22.3243 0.468117 0
29 1 15.3912 7.7369 0
30 1 19.8501 26.5693 0
31 1 10.274 26.7259 0
32 1 29.7024 28.9094 0
33 1 18.0389 19.6183 0
34 1 1.7531 14.0508 0
35 1 14.878 29.2915 0
36 1 0.19793 6.45929 0
37 1 21.4833 11.1417 0
38 1 20.3655 10.1288 0
39 1 29.7239 19.4349 0
40 1 14.5424 5.07549 0
41 1 28.892 3.14642 0
42 1 2.52496 11.3927 0
43 1 2.0828 18.0426 0
44 1 3.47511 28.9202 0
45 1 21.7423 24.742 0
46 1 5.38875 4.96244 0
47 1 15.2162 18.8414 0
48 1 13.1418 0.957586 0
49 1 27.634 3.69323 0
50 1 6.14751 23.1382 0
51 1 21.0289 17.1331 0
52 1 14.1575 28.1519 0
53 1 4.23549 13.5766 0
54 1 26.4516 26.2714 0
55 1 24.8772 18.3679 0
56 1 0.510339 5.56213 0
57 1 15.6588 17.3206 0
58 1 5.80268 2.69543 0
59 1 13.5409 14.2062 0
60 1 26.6471 0.494392 0
61 1 25.5638 15.5308 0
62 1 25.4746 2.86591 0
63 1 23.7157 0.46302 0
64 1 18.2965 18.4433 0
65 1 28.7952 25.6325 0
66 1 5.18457 14.5807 0
67 1 23.5855 24.6428 0
68 1 9.97795 14.8478 0
69 1 17.0919 29.018 0
70 1 9.69154 16.9426 0
71 1 28.7996 29.8267 0
72 1 17.5823 28.1965 0
73 1 10.7431 28.1441 0
74 1 18.6161 14.9677 0
75 1 7.47525 26.784 0
76 1 16.3903 27.9812 0
77 1 11.6877 22.1078 0
78 1 7.37123 16.6955 0
79 1 13.3426 16.6411 0
80 1 5.37543 29.3078 0
81 1 0.124051 24.471 0
82 1 26.6768 27.9744 0
83 1 10.766 18.214 0
84 1 26.9892 5.5937 0
85 1 10.7346 5.0993 0
86 1 23.5176 19.3932 0
87 1 18.2271 21.905 0
88 1 28.738 22.1326 0
89 1 0.701612 18.6698 0
90 1 11.0439 26.6183 0
91 1 6.78945 4.78072 0
92 1 23.704 16.7451 0
93 1 29.542 10.9375 0
94 1 1.56848 23.682 0
95 1 25.0646 19.4584 0
96 1 6.60209 29.2165 0
97 1 24.9516 29.697 0
98 1 9.49295 5.56208 0
99 1 16.392 10.0972 0
100 1 21.0975 21.8883 0
101 1 5.38149 23.6122 0
102 1 16.0512 21.2406 0
103 1 22.0275 10.0784 0
104 1 10.032 2.83695 0
105 1 18.3059 16.8546 0
106 1 6.26153 14.058 0
107 1 8.92209 23.1845 0
108 1 10.0622 8.20251 0
109 1 16.4163 24.8569 0
110 1 4.1433 6.83743 0
111 1 8.68891 2.64 0
112 1 4.18686 8.3743 0
113 1 7.47933 21.8287 0
114 1 0.686949 4.6208 0
115 1 22.5839 8.58084 0
116 1 6.9398 2.18139 0
117 1 19.9473 21.3459 0
118 1 14.3102 12.2007 0
119 1 28.9843 4.34758 0
120 1 15.2832 4.05984 0
121 1 22.0989 22.7812 0
122 1 12.016 19.1769 0
123 1 18.4604 12.4125 0
124 1 9.99419 10.2843 0
125 1 1.74198 11.9686 0
126 1 3.2967 16.4766 0
127 1 11.5171 1.72331 0
128 1 28.4834 17.102 0
129 1 11.0399 11.827 0
130 1 3.66178 10.8513 0
131 1 19.9462 1.48212 0
132 1 0.823218 20.8688 0
133 1 9.9083 29.8395 0
134 1 9.02338 4.71187 0
135 1 3.8488 0.414332 0
136 1 20.7188 24.9652 0
137 1 23.2065 7.85637 0
138 1 25.8594 16.9712 0
139 1 4.32335 28.0592 0
140 1 0.760533 1.67278 0
141 1 26.955 17.2737 0
142 1 6.40517 6.1414 0
143 1 19.1535 5.93191 0
144 1 2.11586 25.06 0
145 1 14.1826 15.9464 0
146 1 0.51026 16.4608 0
147 1 4.69313 3.959 0
148 1 14.4948 24.5825 0
149 1 8.7286 0.967464 0
150 1 6.03587 16.63 0
151 1 10.8833 13.4404 0
152 1 9.15584 17.8582 0
153 1 21.7374 5.62995 0
154 1 14.9113 2.35197 0
155 1 16.9559 4.36102 0
156 1 23.1301 9.79039 0
157 1 16.9721 11.7239 0
158 1 17.1638 7.67024 0
159 1 13.2884 11.2362 0
160 1 25.2298 27.7925 0
161 1 19.7453 16.0393 0
162 1 19.659 20.4419 0
163 1 28.724 18.4373 0
164 1 25.6868 5.88874 0
165 1 10.1843 19.0014 0
166 1 7.98472 5.88182 0
167 1 23.3982 14.2696 0
168 1 23.8257 27.2514 0
169 1 5.35594 9.42358 0
170 1 27.4129 19.9575 0
171 1 3.00416 22.0779 0
172 1 29.6072 1.34003 0
173 1 4.82029 10.4119 0
174 1 11.6627 2.87869 0
175 1 18.9858 11.5317 0
176 1 24.3354 1.71687 0
177 1 20.7927 15.9882 0
178 1 3.48713 19.4324 0
179 1 26.8161 18.2844 0
180 1 1.28065 17.6952 0
181 1 6.50476 21.6104 0
182 1 6.41687 13.2321 0
183 1 26.186 11.1983 0
184 1 23.4316 28.9761 0
185 1 14.5101 8.65019 0
186 1 20.4631 22.6424 0
187 1 1.52509 15.8178 0
188 1 27.6105 28.5245 0
189 1 0.324152 25.425 0
190 1 24.4357 20.2801 0
191 1 14.5827 3.5162 0
192 1 8.70761 6.20016 0
193 1 22.2284 17.2353 0
194 1 27.8824 2.31772 0
ITEM: TIMESTEP
1335
ITEM: NUMBER OF ATOMS
194
ITEM: BOX BOUNDS pp pp pp
0.0000000000000000e+00 3.0000000000000000e+01
0.0000000000000000e+00 3.0000000000000000e+01
-5.0000000000000000e-01 5.0000000000000000e-01
ITEM: ATOMS id type x y z
1 1 24.9995 5.15392 0
2 1 22.2476 13.3981 0
3 1 19.8006 29.7417 0
4 1 11.3161 19.859 0
5 1 1.60838 0.470628 0
6 1 15.236 1.3953 0
7 1 7.17129 19.9763 0
8 1 21.1074 20.8605 0
9 1 19.0847 28.6159 0
10 1 17.9775 2.93651 0
11 1 29.6963 14.0858 0
12 1 3.10227 2.4561 0
13 1 19.1854 25.7819 0
14 1 26.5159 1.63275 0
15 1 17.0378 6.61935 0
16 1 6.73653 7.79998 0
17 1 2.65534 29.4839 0
18 1 20.996 7.85389 0
19 1 22.4556 29.2424 0
20 1 5.32593 16.1131 0
21 1 13.2792 29.4635 0
22 1 21.6926 8.86297 0
23 1 4.31158 16.2352 0
24 1 25.172 14.3416 0
25 1 27.6392 6.56733 0
26 1 11.785 23.5373 0
27 1 4.98658 19.387 0
28 1 21.8642 0.324722 0
29 1 15.0024 7.84115 0
30 1 20.077 26.4264 0
31 1 9.86495 26.7674 0
32 1 29.4965 28.893 0
33 1 17.7992 19.8518 0
34 1 1.90561 13.6617 0
35 1 14.8302 29.3491 0
36 1 0.0454853 6.54123 0
37 1 21.1592 10.8575 0
38 1 20.6604 10.02 0
39 1 29.9362 19.4398 0
40 1 14.8341 4.78698 0
41 1 28.6298 3.76284 0
42 1 2.19384 11.4761 0
43 1 2.05152 18.0117 0
44 1 3.14818 28.6902 0
45 1 21.9366 24.89 0
46 1 5.40351 5.15729 0
47 1 15.1851 18.8614 0
48 1 13.2976 0.953639 0
49 1 27.899 3.14394 0
50 1 6.22559 22.8596 0
51 1 21.1116 17.4714 0
52 1 13.8636 28.2189 0
53 1 4.41061 13.6955 0
54 1 26.4545 26.4728 0
55 1 24.8076 18.352 0
56 1 0.806426 5.56874 0
57 1 16.0032 17.0775 0
58 1 5.68821 2.64425 0
59 1 13.8364 14.3157 0
60 1 26.5422 0.0640557 0
61 1 25.4511 14.9867 0
62 1 25.758 2.45673 0
63 1 23.3365 0.495764 0
64 1 18.5411 18.2117 0
65 1 28.8744 25.8337 0
66 1 5.40289 15.1041 0
67 1 23.7315 24.7007 0
68 1 9.58691 14.7417 0
69 1 17.3012 28.9998 0
70 1 9.85998 16.9197 0
71 1 28.2235 29.6156 0
72 1 17.9024 28.2051 0
73 1 10.5894 28.3444 0
74 1 18.8498 15.0684 0
75 1 7.34133 26.8788 0
76 1 16.8542 27.7198 0
77 1 11.6166 22.4214 0
78 1 7.15295 17.1502 0
79 1 13.3682 16.5288 0
80 1 5.13774 29.4793 0
81 1 0.551053 24.0864 0
82 1 26.5842 28.1274 0
83 1 10.4179 18.146 0
84 1 27.2234 5.82716 0
85 1 10.9991 5.54785 0
86 1 23.5785 19.5399 0
87 1 17.7539 22.1594 0
88 1 28.4309 21.8075 0
89 1 0.721441 18.5588 0
90 1 11.4202 26.3903 0
91 1 6.9227 4.30572 0
92 1 23.8171 16.5759 0
93 1 29.2197 11.0573 0
94 1 1.76411 23.4882 0
95 1 24.7331 19.3886 0
96 1 6.42123 28.6784 0
97 1 24.378 29.4924 0
98 1 9.56984 5.54383 0
99 1 16.4679 9.99201 0
100 1 21.3161 21.7241 0
101 1 5.43492 23.614 0
102 1 15.6171 21.4088 0
103 1 22.0494 10.4528 0
104 1 10.212 3.0847 0
105 1 18.3598 16.996 0
106 1 6.2264 14.5103 0
107 1 8.81655 22.7384 0
108 1 10.0799 8.23555 0
109 1 16.0442 24.6568 0
110 1 3.94989 6.95565 0
111 1 8.82234 2.39803 0
112 1 3.83719 8.59573 0
113 1 7.92756 21.984 0
114 1 0.499597 4.72005 0
115 1 22.6644 8.45124 0
116 1 7.09178 2.71596 0
117 1 20.0281 21.5539 0
118 1 14.18 12.2207 0
119 1 29.0168 4.59937 0
120 1 15.4267 4.21731 0
121 1 22.0535 22.3703 0
122 1 12.6968 18.845 0
123 1 18.667 12.1363 0
124 1 9.83635 10.1014 0
125 1 1.31026 11.8723 0
126 1 3.44837 16.5862 0
127 1 11.8507 1.74289 0
128 1 28.241 17.3354 0
129 1 11.3204 12.0791 0
130 1 3.6429 10.8923 0
131 1 19.9795 1.73476 0
132 1 1.11448 20.9028 0
133 1 10.0264 29.7743 0
134 1 8.87289 4.84379 0
135 1 3.89912 0.250573 0
136 1 20.8879 24.908 0
137 1 23.5569 7.78875 0
138 1 25.5352 17.2068 0
139 1 4.52252 28.0677 0
140 1 0.860886 1.38855 0
141 1 27.0582 17.0878 0
142 1 6.89487 6.66655 0
143 1 18.8149 5.91139 0
144 1 1.77628 25.1247 0
145 1 14.4263 15.8303 0
146 1 1.10795 16.6505 0
147 1 5.0707 4.04681 0
148 1 14.6953 24.9464 0
149 1 9.04003 1.03179 0
150 1 6.34869 16.6653 0
151 1 10.614 13.0769 0
152 1 9.52007 18.0101 0
153 1 21.882 5.42545 0
154 1 14.9521 2.48026 0
155 1 16.7627 4.42338 0
156 1 23.4059 9.63111 0
157 1 17.2628 11.8573 0
158 1 17.0049 7.42044 0
159 1 12.7507 10.9797 0
160 1 25.7181 27.8077 0
161 1 19.4154 16.5214 0
162 1 19.8504 20.4553 0
163 1 28.4834 18.518 0
164 1 25.6161 6.14022 0
165 1 10.3376 19.1726 0
166 1 7.65929 5.78562 0
167 1 23.6138 14.1781 0
168 1 24.0365 27.1561 0
169 1 5.44895 9.5177 0
170 1 27.5889 20.0336 0
171 1 2.60809 21.9609 0
172 1 29.9321 1.49659 0
173 1 4.45365 10.4456 0
174 1 11.8237 2.89116 0
175 1 19.1983 11.3655 0
176 1 23.88 1.58235 0
177 1 20.5561 15.8735 0
178 1 3.29464 19.6524 0
179 1 26.6834 18.1805 0
180 1 1.07022 17.5219 0
181 1 6.09067 21.619 0
182 1 5.98525 13.2674 0
183 1 26.2174 11.105 0
184 1 23.4164 28.9933 0
185 1 14.3324 8.32604 0
186 1 20.2197 22.5451 0
187 1 1.38296 15.5052 0
188 1 27.7555 28.5121 0
189 1 0.0905689 25.1214 0
190 1 24.6407 20.5798 0
191 1 14.646 3.42541 0
192 1 8.87783 6.46487 0
193 1 22.4092 17.5914 0
194 1 27.636 1.95724 0
ITEM: TIMESTEP
1350
ITEM: NUMBER OF ATOMS
194
ITEM: BOX BOUNDS pp pp pp
0.0000000000000000e+00 3.0000000000000000e+01
0.0000000000000000e+00 3.0000000000000000e+01
-5.0000000000000000e-01 5.0000000000000000e-01
ITEM: ATOMS id type x y z
1 1 25.1805 4.89723 0
2 1 22.2824 13.55 0
3 1 19.8249 29.5259 0
4 1 11.2703 19.3937 0
5 1 1.57631 0.489136 0
6 1 15.0615 1.28821 0
7 1 7.59471 20.0581 0
8 1 20.947 20.7334 0
9 1 19.0094 28.5114 0
10 1 18.0635 2.99614 0
11 1 29.9118 13.9708 0
12 1 2.83391 2.94296 0
13 1 19.4048 25.827 0
14 1 26.2939 1.35022 0
15 1 16.7547 6.38545 0
16 1 6.76416 8.06589 0
17 1 2.51374 29.3431 0
18 1 20.5082 8.12381 0
19 1 22.4971 29.2056 0
20 1 5.61002 16.4396 0
21 1 13.6121 29.0779 0
22 1 21.5722 8.61714 0
23 1 4.49611 16.3865 0
24 1 24.7749 13.9473 0
25 1 27.8403 6.8149 0
26 1 11.9957 23.4795 0
27 1 4.48123 19.3421 0
28 1 21.409 0.177552 0
29 1 15.0134 7.64022 0
30 1 20.31 26.2856 0
31 1 9.44138 26.8124 0
32 1 29.287 28.8779 0
33 1 17.5602 20.0844 0
34 1 2.05761 13.2725 0
35 1 14.7783 29.405 0
36 1 29.7817 6.84202 0
37 1 20.8546 10.7762 0
38 1 20.8976 9.73031 0
39 1 0.150676 19.4411 0
40 1 14.8125 4.80627 0
41 1 28.4689 4.26192 0
42 1 1.97921 11.4977 0
43 1 2.08329 18.0115 0
44 1 2.88682 28.3567 0
45 1 22.4516 25.0039 0
46 1 5.41857 5.34839 0
47 1 15.1542 18.881 0
48 1 13.4527 0.947738 0
49 1 27.954 2.51366 0
50 1 6.40611 22.4992 0
51 1 21.1984 17.8083 0
52 1 13.5741 28.2572 0
53 1 4.58877 13.815 0
54 1 26.4565 26.678 0
55 1 24.7408 18.3145 0
56 1 1.25758 5.50802 0
57 1 16.3471 16.8346 0
58 1 5.57664 2.59531 0
59 1 14.1326 14.4267 0
60 1 26.4389 29.6345 0
61 1 25.8848 15.691 0
62 1 25.9072 2.25736 0
63 1 22.9571 0.52456 0
64 1 18.7875 17.9833 0
65 1 28.9566 26.0331 0
66 1 5.57139 15.5254 0
67 1 23.8765 24.7588 0
68 1 9.19617 14.6354 0
69 1 17.469 29.0353 0
70 1 10.0301 16.9014 0
71 1 27.6474 29.4149 0
72 1 18.2433 28.1471 0
73 1 10.4345 28.5458 0
74 1 19.0849 15.1717 0
75 1 7.2072 26.9741 0
76 1 17.3226 27.4638 0
77 1 11.5334 22.7053 0
78 1 7.01905 17.6699 0
79 1 13.3977 16.4139 0
80 1 4.8988 29.6492 0
81 1 0.983172 23.6834 0
82 1 26.7625 28.4156 0
83 1 10.6122 17.979 0
84 1 27.2923 5.76922 0
85 1 11.26 5.99648 0
86 1 23.6198 19.6954 0
87 1 17.2807 22.4136 0
88 1 28.1235 21.4818 0
89 1 0.738297 18.4655 0
90 1 11.8114 26.1603 0
91 1 7.03582 3.90907 0
92 1 23.9304 16.4077 0
93 1 28.8977 11.1773 0
94 1 1.95692 23.2966 0
95 1 24.4238 19.3307 0
96 1 6.23772 28.141 0
97 1 24.0369 29.431 0
98 1 9.70194 5.58904 0
99 1 16.544 9.8872 0
100 1 21.3556 21.6097 0
101 1 5.38615 23.6932 0
102 1 15.183 21.577 0
103 1 22.1117 10.8002 0
104 1 10.3916 3.33128 0
105 1 18.3292 17.1595 0
106 1 6.24177 14.9511 0
107 1 8.98087 22.4885 0
108 1 10.0974 8.26899 0
109 1 15.6688 24.4577 0
110 1 3.75648 7.07525 0
111 1 8.95761 2.1534 0
112 1 3.48841 8.81668 0
113 1 8.10425 21.943 0
114 1 0.264715 4.66721 0
115 1 22.7607 8.32051 0
116 1 7.26015 3.17393 0
117 1 20.1138 21.6362 0
118 1 14.0491 12.2404 0
119 1 29.1599 5.04575 0
120 1 15.9172 4.1211 0
121 1 22.2273 22.1276 0
122 1 13.3763 18.5138 0
123 1 18.7351 12.0646 0
124 1 9.67866 9.91786 0
125 1 0.764305 11.8375 0
126 1 3.47524 16.7474 0
127 1 12.1854 1.76467 0
128 1 27.9957 17.5728 0
129 1 11.5985 12.3343 0
130 1 3.46307 11.0315 0
131 1 20.0127 1.98688 0
132 1 1.40629 20.937 0
133 1 10.1443 29.708 0
134 1 8.66817 4.91561 0
135 1 3.94867 0.0827362 0
136 1 20.736 24.8862 0
137 1 23.9141 7.71478 0
138 1 25.2133 17.4458 0
139 1 4.72051 28.0798 0
140 1 1.03769 1.12467 0
141 1 27.1613 16.9022 0
142 1 7.38838 7.18802 0
143 1 18.4757 5.89114 0
144 1 1.43421 25.1866 0
145 1 14.6659 15.7154 0
146 1 1.73809 16.6176 0
147 1 5.45096 4.13624 0
148 1 14.8992 25.3093 0
149 1 9.35189 1.09864 0
150 1 6.57599 16.6338 0
151 1 10.3473 12.7101 0
152 1 9.38589 18.1294 0
153 1 22.0266 5.22102 0
154 1 15.029 2.51789 0
155 1 16.6252 4.50878 0
156 1 23.677 9.46863 0
157 1 17.5571 11.9909 0
158 1 16.8256 7.71521 0
159 1 12.213 10.7242 0
160 1 25.9402 27.6865 0
161 1 19.17 16.9758 0
162 1 20.0405 20.4581 0
163 1 28.2418 18.5963 0
164 1 25.5517 6.39397 0
165 1 10.3722 19.4555 0
166 1 7.277 5.66382 0
167 1 23.8298 14.086 0
168 1 24.2481 27.0617 0
169 1 5.53842 9.61421 0
170 1 27.7657 20.109 0
171 1 2.21069 21.8441 0
172 1 0.147618 1.67162 0
173 1 4.2486 10.3785 0
174 1 11.9832 2.90097 0
175 1 19.5465 10.9938 0
176 1 23.4236 1.44488 0
177 1 20.3166 15.7618 0
178 1 3.10306 19.872 0
179 1 26.5503 18.0751 0
180 1 0.764914 17.5232 0
181 1 5.67815 21.6315 0
182 1 5.55403 13.2721 0
183 1 26.2487 11.0116 0
184 1 23.2636 28.8439 0
185 1 13.7555 8.30693 0
186 1 19.9866 22.5808 0
187 1 1.24081 15.1951 0
188 1 27.8977 28.4871 0
189 1 29.8547 24.8374 0
190 1 24.8423 20.8773 0
191 1 14.5815 3.35298 0
192 1 9.10353 6.75379 0
193 1 22.5861 17.9466 0
194 1 27.3863 1.59976 0
ITEM: TIMESTEP
1365
ITEM: NUMBER OF ATOMS
194
ITEM: BOX BOUNDS pp pp pp
0.0000000000000000e+00 3.0000000000000000e+01
0.0000000000000000e+00 3.0000000000000000e+01
-5.0000000000000000e-01 5.0000000000000000e-01
ITEM: ATOMS id type x y z
1 1 25.3624 4.64298 0
2 1 22.3188 13.7024 0
3 1 19.8485 29.3085 0
4 1 11.4614 18.9469 0
5 1 1.80773 0.19628 0
6 1 14.885 1.18559 0
7 1 8.0182 20.1405 0
8 1 20.9798 20.5685 0
9 1 19.2504 28.5643 0
10 1 18.1494 3.05595 0
11 1 0.128203 13.8563 0
12 1 2.56552 3.42982 0
13 1 19.5931 25.8555 0
14 1 26.2577 0.743986 0
15 1 16.4729 6.10327 0
16 1 6.78888 8.33706 0
17 1 2.35538 29.2396 0
18 1 20.025 8.39692 0
19 1 22.2173 29.313 0
20 1 5.83942 17.018 0
21 1 13.949 29.0913 0
22 1 21.4505 8.37141 0
23 1 4.70284 16.5277 0
24 1 24.6454 13.4226 0
25 1 28.0599 7.09495 0
26 1 12.2905 23.5695 0
27 1 3.97324 19.2982 0
28 1 20.9569 0.0279441 0
29 1 15.0334 7.43351 0
30 1 20.576 26.1575 0
31 1 9.01797 26.8577 0
32 1 29.0732 28.8622 0
33 1 17.3214 20.317 0
34 1 2.20894 12.882 0
35 1 14.7373 29.4665 0
36 1 29.5177 7.14139 0
37 1 20.6339 10.8415 0
38 1 21.1049 9.30004 0
39 1 0.365663 19.4421 0
40 1 14.775 4.836 0
41 1 28.2453 4.66588 0
42 1 1.76541 11.5199 0
43 1 2.10834 18.008 0
44 1 2.64278 27.9897 0
45 1 22.9681 25.1171 0
46 1 5.43476 5.53464 0
47 1 15.1222 18.9001 0
48 1 13.6077 0.942721 0
49 1 28.0134 1.88987 0
50 1 6.58437 22.1385 0
51 1 21.2885 18.1452 0
52 1 13.2696 27.8927 0
53 1 4.70809 13.9949 0
54 1 26.4905 26.8322 0
55 1 24.6073 18.403 0
56 1 1.71101 5.45513 0
57 1 16.6913 16.5918 0
58 1 5.46617 2.54899 0
59 1 14.4302 14.5412 0
60 1 26.2882 29.2221 0
61 1 26.3359 16.433 0
62 1 25.8683 2.37787 0
63 1 22.5561 0.50695 0
64 1 18.9934 18.0253 0
65 1 29.0404 26.2305 0
66 1 5.54339 15.8574 0
67 1 24.0184 24.8176 0
68 1 8.80556 14.529 0
69 1 17.6385 29.0677 0
70 1 10.2011 16.891 0
71 1 27.191 29.49 0
72 1 18.2771 27.9463 0
73 1 10.2797 28.7389 0
74 1 19.3145 15.2734 0
75 1 7.0714 27.0713 0
76 1 17.7823 27.1987 0
77 1 11.3662 22.8415 0
78 1 6.90856 18.2144 0
79 1 13.4301 16.2975 0
80 1 4.78068 29.7776 0
81 1 1.34417 23.3066 0
82 1 26.9846 28.5459 0
83 1 10.9943 17.8193 0
84 1 27.3432 5.67802 0
85 1 11.519 6.44479 0
86 1 23.4616 19.9445 0
87 1 16.8074 22.6676 0
88 1 27.8155 21.1542 0
89 1 0.757998 18.4749 0
90 1 12.2024 25.9304 0
91 1 6.91004 4.35649 0
92 1 24.0448 16.2407 0
93 1 28.5761 11.2974 0
94 1 2.22047 23.0795 0
95 1 24.3062 19.2103 0
96 1 6.05312 27.602 0
97 1 24.0222 29.5777 0
98 1 9.832 5.63811 0
99 1 16.6202 9.78225 0
100 1 21.2353 21.4582 0
101 1 5.33897 23.7703 0
102 1 14.7492 21.7453 0
103 1 22.1724 11.1451 0
104 1 10.572 3.57711 0
105 1 17.9128 17.3471 0
106 1 6.45046 15.2294 0
107 1 9.52493 22.5083 0
108 1 10.1141 8.30284 0
109 1 15.2909 24.2614 0
110 1 3.56301 7.19574 0
111 1 9.08764 1.91786 0
112 1 3.14048 9.03791 0
113 1 7.90002 21.632 0
114 1 0.0234167 4.60757 0
115 1 22.8587 8.19088 0
116 1 7.66466 2.78947 0
117 1 20.2113 21.5286 0
118 1 13.9181 12.2603 0
119 1 29.3682 5.58752 0
120 1 15.9431 3.76887 0
121 1 22.6004 22.0287 0
122 1 14.0567 18.1829 0
123 1 18.806 11.9917 0
124 1 9.52131 9.73318 0
125 1 0.219531 11.803 0
126 1 3.47939 16.9167 0
127 1 12.5216 1.7882 0
128 1 27.7457 17.7871 0
129 1 11.8733 12.5901 0
130 1 3.19748 11.2295 0
131 1 20.0458 2.23889 0
132 1 1.67903 20.9219 0
133 1 10.261 29.6512 0
134 1 8.46291 4.98901 0
135 1 3.87552 -0.0472754 0
136 1 20.5836 24.8683 0
137 1 24.2675 7.64366 0
138 1 24.9694 17.5293 0
139 1 4.92047 28.094 0
140 1 1.00006 1.14713 0
141 1 27.2564 16.7165 0
142 1 7.8857 7.7017 0
143 1 18.1353 5.87101 0
144 1 1.09002 25.2461 0
145 1 14.9014 15.5987 0
146 1 2.38016 16.5509 0
147 1 5.8339 4.22824 0
148 1 15.1056 25.6694 0
149 1 9.66997 1.15569 0
150 1 6.8355 16.5779 0
151 1 10.0844 12.342 0
152 1 9.0646 18.2396 0
153 1 22.1713 5.01658 0
154 1 15.168 2.42156 0
155 1 16.9653 4.83521 0
156 1 23.9459 9.30311 0
157 1 17.8495 12.125 0
158 1 16.6448 8.05731 0
159 1 11.6751 10.4697 0
160 1 26.0024 27.5431 0
161 1 19.3518 17.1332 0
162 1 19.9893 20.4008 0
163 1 28.0062 18.7037 0
164 1 25.4871 6.64537 0
165 1 10.1683 19.7138 0
166 1 6.89551 5.54216 0
167 1 23.7595 14.088 0
168 1 24.4605 26.9678 0
169 1 5.62566 9.71167 0
170 1 27.9436 20.1843 0
171 1 1.83215 21.7787 0
172 1 0.316338 1.86894 0
173 1 4.12899 10.2507 0
174 1 12.1419 2.908 0
175 1 19.8429 10.615 0
176 1 22.9872 1.34656 0
177 1 20.0814 15.6543 0
178 1 2.91344 20.0908 0
179 1 26.4192 17.9642 0
180 1 0.4525 17.4567 0
181 1 5.26748 21.6459 0
182 1 5.18258 13.2183 0
183 1 26.2801 10.9183 0
184 1 23.1028 28.3508 0
185 1 13.1705 8.29351 0
186 1 19.7501 22.7978 0
187 1 1.09862 14.8868 0
188 1 28.0546 28.4025 0
189 1 29.62 24.5541 0
190 1 25.0427 21.1718 0
191 1 14.4584 3.41443 0
192 1 9.3306 7.03868 0
193 1 22.7601 18.3015 0
194 1 27.1351 1.23873 0
ITEM: TIMESTEP
1380
ITEM: NUMBER OF ATOMS
194
ITEM: BOX BOUNDS pp pp pp
0.0000000000000000e+00 3.0000000000000000e+01
0.0000000000000000e+00 3.0000000000000000e+01
-5.0000000000000000e-01 5.0000000000000000e-01
ITEM: ATOMS id type x y z
1 1 25.5445 4.38917 0
2 1 22.3582 13.8555 0
3 1 20.0024 29.2568 0
4 1 11.6559 18.5065 0
5 1 2.0345 29.943 0
6 1 14.7079 1.08653 0
7 1 8.44151 20.2251 0
8 1 21.1508 20.3172 0
9 1 19.4032 28.4698 0
10 1 18.2353 3.11589 0
11 1 0.346858 13.7437 0
12 1 2.29704 3.917 0
13 1 19.756 25.872 0
14 1 26.179 0.119913 0
15 1 16.1936 5.81828 0
16 1 6.81632 8.60711 0
17 1 2.22025 29.0742 0
18 1 19.5474 8.67254 0
19 1 21.9205 29.4332 0
20 1 6.03878 17.603 0
21 1 14.041 29.0053 0
22 1 21.356 8.02063 0
23 1 4.85149 16.7185 0
24 1 24.6802 12.8307 0
25 1 28.2809 7.3727 0
26 1 12.5952 23.6731 0
27 1 3.46143 19.257 0
28 1 20.5164 29.8863 0
29 1 15.0543 7.22704 0
30 1 20.8699 26.034 0
31 1 8.59415 26.9032 0
32 1 28.8851 28.864 0
33 1 17.0825 20.5497 0
34 1 2.35915 12.4878 0
35 1 14.9447 29.6551 0
36 1 29.2514 7.4385 0
37 1 20.8383 11.0087 0
38 1 21.2825 8.97481 0
39 1 0.572886 19.466 0
40 1 14.739 4.86149 0
41 1 28.0335 5.06434 0
42 1 1.55364 11.545 0
43 1 2.13028 18.0025 0
44 1 2.39809 27.627 0
45 1 23.4279 25.2533 0
46 1 5.45548 5.71648 0
47 1 15.0875 18.9173 0
48 1 13.7616 0.939693 0
49 1 28.0759 1.26945 0
50 1 6.76228 21.7755 0
51 1 21.3811 18.4825 0
52 1 12.9609 27.5027 0
53 1 4.69264 14.3463 0
54 1 26.6948 26.7323 0
55 1 24.5058 18.3646 0
56 1 2.16364 5.40151 0
57 1 17.0376 16.3508 0
58 1 5.35625 2.50397 0
59 1 14.7246 14.6499 0
60 1 25.9709 28.8529 0
61 1 26.5757 17.1498 0
62 1 25.8309 2.49626 0
63 1 22.1036 0.388062 0
64 1 19.085 18.3802 0
65 1 29.1247 26.427 0
66 1 5.54416 16.1639 0
67 1 24.217 24.8538 0
68 1 8.41489 14.4226 0
69 1 17.812 29.0947 0
70 1 10.3749 16.8855 0
71 1 27.064 30.0714 0
72 1 18.3545 27.8816 0
73 1 10.1204 28.7534 0
74 1 19.174 15.1902 0
75 1 6.93737 27.1692 0
76 1 18.1451 26.7754 0
77 1 11.1879 22.9639 0
78 1 6.79693 18.7556 0
79 1 13.4643 16.1804 0
80 1 4.89262 29.844 0
81 1 1.51235 22.9828 0
82 1 27.0452 28.1218 0
83 1 11.37 17.6501 0
84 1 27.3864 5.59621 0
85 1 11.7772 6.8931 0
86 1 23.272 20.212 0
87 1 16.3337 22.9216 0
88 1 27.473 20.9285 0
89 1 0.79386 18.4933 0
90 1 12.5935 25.7005 0
91 1 6.9001 4.74952 0
92 1 24.1604 16.0753 0
93 1 28.2555 11.4179 0
94 1 2.67562 22.8043 0
95 1 24.0934 19.4057 0
96 1 5.86263 27.0645 0
97 1 24.0048 29.7236 0
98 1 9.95942 5.6887 0
99 1 16.6963 9.67594 0
100 1 21.207 21.4398 0
101 1 5.29205 23.8469 0
102 1 14.3155 21.9136 0
103 1 22.2305 11.4893 0
104 1 10.7531 3.82255 0
105 1 17.4804 17.5265 0
106 1 6.69111 15.4867 0
107 1 10.069 22.5277 0
108 1 10.1283 8.33606 0
109 1 14.9123 24.0681 0
110 1 3.36941 7.31675 0
111 1 9.16522 1.7466 0
112 1 2.79403 9.26031 0
113 1 7.69435 21.3201 0
114 1 29.7808 4.55098 0
115 1 22.9569 8.06245 0
116 1 8.07398 2.39324 0
117 1 20.262 21.4172 0
118 1 13.7867 12.2804 0
119 1 29.575 6.12736 0
120 1 15.9512 3.40747 0
121 1 22.9709 21.9283 0
122 1 14.7398 17.8534 0
123 1 18.9703 11.899 0
124 1 9.36494 9.54646 0
125 1 29.6759 11.7681 0
126 1 3.54181 17.1263 0
127 1 12.8596 1.8134 0
128 1 27.4641 17.9073 0
129 1 12.1472 12.8454 0
130 1 2.93073 11.4263 0
131 1 20.0787 2.49093 0
132 1 1.88596 20.6516 0
133 1 10.3815 29.7746 0
134 1 8.25743 5.06363 0
135 1 3.57071 29.8824 0
136 1 20.4288 24.8579 0
137 1 24.6199 7.57334 0
138 1 24.8211 17.4033 0
139 1 5.12463 28.1076 0
140 1 0.978917 1.15447 0
141 1 27.5693 16.5376 0
142 1 8.38159 8.21626 0
143 1 17.7961 5.85462 0
144 1 0.744305 25.3043 0
145 1 15.1388 15.489 0
146 1 2.96683 16.4458 0
147 1 6.12575 4.2875 0
148 1 15.3128 26.0263 0
149 1 10.0399 1.14769 0
150 1 7.11883 16.5163 0
151 1 9.82257 11.9738 0
152 1 8.74493 18.3496 0
153 1 22.3159 4.81214 0
154 1 15.3071 2.32082 0
155 1 17.314 5.1693 0
156 1 24.2136 9.13486 0
157 1 18.0493 12.2774 0
158 1 16.463 8.39968 0
159 1 11.1368 10.2155 0
160 1 25.8964 27.6592 0
161 1 19.6625 16.982 0
162 1 19.7565 20.3035 0
163 1 27.7958 18.9052 0
164 1 25.421 6.89755 0
165 1 9.96226 19.9708 0
166 1 6.48355 5.52206 0
167 1 23.5219 14.1566 0
168 1 24.6742 26.8745 0
169 1 5.7117 9.80911 0
170 1 28.1561 20.1546 0
171 1 1.52022 21.9733 0
172 1 0.452526 2.10011 0
173 1 4.00753 10.1231 0
174 1 12.3012 2.91125 0
175 1 19.7167 10.133 0
176 1 22.6013 1.34596 0
177 1 20.2155 15.7337 0
178 1 2.72709 20.3073 0
179 1 26.2841 17.8746 0
180 1 0.136915 17.3573 0
181 1 4.85992 21.6621 0
182 1 4.94635 12.9937 0
183 1 26.3116 10.8249 0
184 1 22.9593 27.8499 0
185 1 12.5858 8.27976 0
186 1 19.5149 23.0134 0
187 1 0.954639 14.5764 0
188 1 28.1914 28.2975 0
189 1 29.3867 24.2722 0
190 1 25.2425 21.4657 0
191 1 14.3376 3.48044 0
192 1 9.5586 7.324 0
193 1 22.9333 18.6575 0
194 1 26.911 0.896111 0
ITEM: TIMESTEP
1395
ITEM: NUMBER OF ATOMS
194
ITEM: BOX BOUNDS pp pp pp
0.0000000000000000e+00 3.0000000000000000e+01
0.0000000000000000e+00 3.0000000000000000e+01
-5.0000000000000000e-01 5.0000000000000000e-01
ITEM: ATOMS id type x y z
1 1 25.727 4.1349 0
2 1 22.3931 14.0074 0
3 1 19.9631 28.9423 0
4 1 11.9178 18.282 0
5 1 2.20443 29.9138 0
6 1 14.7117 1.01273 0
7 1 8.86228 20.3125 0
8 1 21.3142 20.0514 0
9 1 19.4196 28.2028 0
10 1 18.3214 3.17587 0
11 1 0.50321 13.5239 0
12 1 2.02862 4.40686 0
13 1 19.9188 25.8849 0
14 1 25.9498 29.4941 0
15 1 15.918 5.53065 0
16 1 6.84451 8.87776 0
17 1 2.14505 28.6838 0
18 1 19.0685 8.94407 0
19 1 21.6019 29.4221 0
20 1 6.23899 18.1853 0
21 1 14.0751 28.8866 0
22 1 21.284 7.53666 0
23 1 4.80502 17.0665 0
24 1 24.7139 12.2398 0
25 1 28.2381 7.62508 0
26 1 12.8982 23.7759 0
27 1 2.94591 19.2194 0
28 1 20.4061 30.1778 0
29 1 15.0762 7.02028 0
30 1 21.1638 25.9064 0
31 1 8.16898 26.9491 0
32 1 28.8445 28.9857 0
33 1 16.8436 20.7825 0
34 1 2.41586 12.2902 0
35 1 15.2082 29.8802 0
36 1 29.2506 7.75573 0
37 1 21.0601 11.1821 0
38 1 21.4375 8.78303 0
39 1 0.770406 19.536 0
40 1 14.7036 4.8841 0
41 1 28.1625 5.19894 0
42 1 1.34848 11.5738 0
43 1 2.15066 17.9974 0
44 1 2.15299 27.2677 0
45 1 23.6716 25.4933 0
46 1 5.21908 5.94076 0
47 1 15.0525 18.9329 0
48 1 13.7342 0.91452 0
49 1 28.1327 0.646257 0
50 1 6.83931 21.4707 0
51 1 21.4753 18.8209 0
52 1 12.6527 27.1127 0
53 1 4.67614 14.6995 0
54 1 26.9096 26.6225 0
55 1 24.4218 18.2827 0
56 1 2.6162 5.34534 0
57 1 17.3856 16.114 0
58 1 5.24655 2.45945 0
59 1 14.9537 14.6304 0
60 1 25.6504 28.5544 0
61 1 26.9069 17.2232 0
62 1 25.7938 2.61456 0
63 1 21.6595 0.381945 0
64 1 19.1766 18.7334 0
65 1 29.2092 26.6234 0
66 1 5.74426 16.3161 0
67 1 24.6319 24.7869 0
68 1 8.02387 14.3165 0
69 1 17.9888 29.1169 0
70 1 10.553 16.8838 0
71 1 27.2471 -0.0169272 0
72 1 18.4495 27.8594 0
73 1 9.953 28.7012 0
74 1 18.9421 15.0615 0
75 1 6.81014 27.2663 0
76 1 18.4925 26.3158 0
77 1 11.096 23.1545 0
78 1 6.68378 19.2933 0
79 1 13.4996 16.0629 0
80 1 5.00513 29.909 0
81 1 1.71506 22.8528 0
82 1 27.1009 27.6952 0
83 1 11.6736 17.2617 0
84 1 27.0904 5.77906 0
85 1 12.0355 7.34126 0
86 1 23.0834 20.4772 0
87 1 15.8593 23.1759 0
88 1 27.094 20.7741 0
89 1 0.841829 18.4615 0
90 1 12.9847 25.4709 0
91 1 7.23009 4.91614 0
92 1 24.2772 15.9123 0
93 1 27.9376 11.5389 0
94 1 3.13841 22.5243 0
95 1 23.8455 19.6831 0
96 1 5.66356 26.5313 0
97 1 23.9867 29.8695 0
98 1 10.086 5.74005 0
99 1 16.773 9.56879 0
100 1 21.2914 21.4389 0
101 1 5.24514 23.9232 0
102 1 13.8819 22.0824 0
103 1 22.2857 11.8325 0
104 1 10.9348 4.06789 0
105 1 17.0474 17.702 0
106 1 6.91517 15.7241 0
107 1 10.5286 22.4801 0
108 1 10.1488 8.3904 0
109 1 14.5343 23.8747 0
110 1 3.17562 7.43798 0
111 1 9.23095 1.58974 0
112 1 2.44983 9.48409 0
113 1 7.59133 20.9463 0
114 1 29.5369 4.49678 0
115 1 23.0549 7.9349 0
116 1 8.47381 2.00226 0
117 1 20.203 21.298 0
118 1 13.6543 12.3009 0
119 1 29.7799 6.66921 0
120 1 15.9568 3.04545 0
121 1 23.3407 21.8264 0
122 1 15.423 17.5252 0
123 1 19.2047 11.7835 0
124 1 9.22267 9.37729 0
125 1 29.13 11.7327 0
126 1 3.77941 17.5001 0
127 1 13.1992 1.84004 0
128 1 27.2121 18.0614 0
129 1 12.4222 13.1003 0
130 1 2.75098 11.4218 0
131 1 20.1111 2.74311 0
132 1 1.74783 20.4753 0
133 1 10.5091 29.9683 0
134 1 8.05644 5.13995 0
135 1 3.26148 29.8114 0
136 1 20.2731 24.8554 0
137 1 24.8034 7.65066 0
138 1 24.687 17.2375 0
139 1 5.33177 28.1184 0
140 1 0.966643 1.14986 0
141 1 27.9928 16.3526 0
142 1 8.86752 8.70942 0
143 1 17.7411 6.3067 0
144 1 0.397284 25.362 0
145 1 15.4406 15.5083 0
146 1 3.38168 16.1771 0
147 1 6.19895 4.2395 0
148 1 15.5199 26.3826 0
149 1 10.4321 1.11639 0
150 1 7.41088 16.4786 0
151 1 9.56101 11.6055 0
152 1 8.42518 18.4603 0
153 1 22.4605 4.60771 0
154 1 15.4434 2.21967 0
155 1 17.373 5.03703 0
156 1 24.4806 8.96389 0
157 1 18.1797 12.4521 0
158 1 16.2802 8.7424 0
159 1 10.5978 9.96079 0
160 1 25.7887 27.7218 0
161 1 19.9738 16.8286 0
162 1 19.5293 20.2107 0
163 1 27.5948 19.1392 0
164 1 25.5224 7.00403 0
165 1 9.75618 20.2273 0
166 1 6.20361 5.79124 0
167 1 23.2899 14.2256 0
168 1 24.8902 26.7828 0
169 1 5.79778 9.90558 0
170 1 28.4035 20.0487 0
171 1 1.16753 21.9863 0
172 1 0.581164 2.34164 0
173 1 3.88406 9.99492 0
174 1 12.4625 2.91025 0
175 1 19.5788 9.65012 0
176 1 22.225 1.36338 0
177 1 20.4397 15.863 0
178 1 2.8866 20.4172 0
179 1 25.9055 18.3727 0
180 1 29.8237 17.2618 0
181 1 4.45296 21.6786 0
182 1 4.71142 12.7679 0
183 1 26.3435 10.7317 0
184 1 22.8158 27.3498 0
185 1 12.0004 8.26626 0
186 1 19.2804 23.228 0
187 1 0.873046 14.3728 0
188 1 28.1774 28.0722 0
189 1 29.1544 23.9912 0
190 1 25.4422 21.7594 0
191 1 14.2207 3.54715 0
192 1 9.77592 7.59178 0
193 1 23.109 19.016 0
194 1 26.5321 1.22192 0
ITEM: TIMESTEP
1410
ITEM: NUMBER OF ATOMS
194
ITEM: BOX BOUNDS pp pp pp
0.0000000000000000e+00 3.0000000000000000e+01
0.0000000000000000e+00 3.0000000000000000e+01
-5.0000000000000000e-01 5.0000000000000000e-01
ITEM: ATOMS id type x y z
1 1 25.9096 3.87817 0
2 1 22.2478 14.116 0
3 1 19.9773 28.6941 0
4 1 12.2044 18.1449 0
5 1 2.21045 29.9217 0
6 1 14.8734 0.958377 0
7 1 8.81883 20.4296 0
8 1 21.4625 19.8899 0
9 1 19.4069 27.8227 0
10 1 18.408 3.23597 0
11 1 0.560357 13.1088 0
12 1 1.7606 4.89784 0
13 1 20.0823 25.905 0
14 1 25.8609 29.155 0
15 1 15.6417 5.24174 0
16 1 6.87105 9.15046 0
17 1 2.07294 28.2812 0
18 1 18.4105 9.01661 0
19 1 21.265 29.2701 0
20 1 6.44031 18.7692 0
21 1 14.1113 28.77 0
22 1 21.2132 7.05324 0
23 1 4.76995 17.4104 0
24 1 24.7477 11.6489 0
25 1 27.9792 7.85467 0
26 1 13.2024 23.8795 0
27 1 2.42746 19.1842 0
28 1 20.3342 0.528324 0
29 1 15.0988 6.81254 0
30 1 21.4505 25.7757 0
31 1 7.74021 26.9959 0
32 1 28.8212 29.1272 0
33 1 16.6047 21.0153 0
34 1 2.27261 12.5413 0
35 1 15.4677 0.107382 0
36 1 29.4673 8.09257 0
37 1 21.2846 11.357 0
38 1 21.5922 8.59077 0
39 1 0.964693 19.6153 0
40 1 14.6701 4.90502 0
41 1 28.3559 5.28808 0
42 1 1.1504 11.6053 0
43 1 2.16983 17.996 0
44 1 1.90788 26.912 0
45 1 23.9032 25.7413 0
46 1 4.67178 6.21659 0
47 1 15.0182 18.9455 0
48 1 13.5569 0.854215 0
49 1 28.244 0.0515059 0
50 1 6.7247 21.2881 0
51 1 21.5849 19.0605 0
52 1 12.3448 26.7216 0
53 1 4.65951 15.0531 0
54 1 27.116 26.4521 0
55 1 24.3342 18.2153 0
56 1 3.06843 5.28828 0
57 1 17.7337 15.8786 0
58 1 5.13703 2.41527 0
59 1 15.1431 14.5369 0
60 1 25.1301 28.354 0
61 1 27.1454 17.0289 0
62 1 25.7578 2.73344 0
63 1 21.2338 0.517458 0
64 1 19.269 19.0885 0
65 1 29.2936 26.8198 0
66 1 5.95849 16.4592 0
67 1 25.0596 24.7134 0
68 1 7.6323 14.2113 0
69 1 18.1686 29.1341 0
70 1 10.7357 16.8838 0
71 1 27.4209 29.7334 0
72 1 18.4788 27.8259 0
73 1 9.78697 28.6522 0
74 1 18.7111 14.9343 0
75 1 6.68243 27.3615 0
76 1 18.843 25.8582 0
77 1 11.2628 23.5876 0
78 1 6.57045 19.829 0
79 1 13.5355 15.9452 0
80 1 5.11651 29.9733 0
81 1 1.97853 22.8983 0
82 1 27.1591 27.3332 0
83 1 11.9479 16.7839 0
84 1 26.7316 6.00695 0
85 1 12.332 7.63349 0
86 1 22.892 20.7459 0
87 1 15.3821 23.4313 0
88 1 26.7172 20.6174 0
89 1 0.894195 18.4141 0
90 1 13.3757 25.2409 0
91 1 7.14218 4.96593 0
92 1 24.3948 15.7526 0
93 1 27.6186 11.6598 0
94 1 3.57629 22.2667 0
95 1 23.7031 20.0697 0
96 1 5.4669 26.0017 0
97 1 23.9688 30.0153 0
98 1 10.2126 5.79145 0
99 1 16.9135 9.54257 0
100 1 21.3918 21.4349 0
101 1 5.19816 23.9994 0
102 1 13.4486 22.2523 0
103 1 22.3377 12.1743 0
104 1 11.1167 4.31348 0
105 1 16.6208 17.8818 0
106 1 7.03561 15.8137 0
107 1 10.73 22.19 0
108 1 10.2652 8.67055 0
109 1 14.1569 23.6796 0
110 1 2.98174 7.55919 0
111 1 9.59665 1.27254 0
112 1 2.10799 9.70925 0
113 1 7.6829 20.4472 0
114 1 29.291 4.44399 0
115 1 23.1533 7.80799 0
116 1 8.57842 1.7696 0
117 1 20.1265 21.1724 0
118 1 13.5195 12.3231 0
119 1 29.9829 7.21348 0
120 1 16.0351 2.79927 0
121 1 23.7097 21.7203 0
122 1 16.0995 17.1932 0
123 1 19.4383 11.6689 0
124 1 9.36726 9.96747 0
125 1 28.5846 11.6971 0
126 1 3.99809 17.8884 0
127 1 13.5322 1.88631 0
128 1 27.0706 18.4411 0
129 1 12.6995 13.3535 0
130 1 2.76429 10.9648 0
131 1 20.1428 2.99544 0
132 1 1.46452 20.339 0
133 1 10.634 0.153121 0
134 1 8.27601 5.33499 0
135 1 3.11362 29.7129 0
136 1 20.1208 24.8495 0
137 1 24.7584 7.92285 0
138 1 24.5561 17.0583 0
139 1 5.54047 28.1275 0
140 1 0.953783 1.1487 0
141 1 28.4133 16.1712 0
142 1 8.96677 8.44539 0
143 1 17.7388 6.85606 0
144 1 0.0490796 25.42 0
145 1 15.7819 15.6026 0
146 1 3.79532 15.9058 0
147 1 6.26807 4.1919 0
148 1 15.727 26.7388 0
149 1 10.8208 1.09281 0
150 1 7.80111 16.5905 0
151 1 9.2997 11.2362 0
152 1 8.10486 18.5718 0
153 1 22.6051 4.40327 0
154 1 15.5033 2.00018 0
155 1 17.3767 4.80779 0
156 1 24.747 8.797 0
157 1 18.3114 12.6256 0
158 1 16.0334 9.00389 0
159 1 10.1668 9.69598 0
160 1 25.741 27.3969 0
161 1 20.259 16.725 0
162 1 19.3055 20.1199 0
163 1 27.3971 19.3809 0
164 1 25.8517 6.91062 0
165 1 10.0103 20.4555 0
166 1 6.23602 6.00635 0
167 1 23.2385 14.3379 0
168 1 25.1071 26.6915 0
169 1 5.88546 9.99999 0
170 1 28.6453 19.9402 0
171 1 0.758425 21.8213 0
172 1 0.711067 2.57908 0
173 1 3.75837 9.86661 0
174 1 12.6269 2.90557 0
175 1 19.6207 9.36661 0
176 1 21.8487 1.38057 0
177 1 20.6881 15.9417 0
178 1 3.19395 20.487 0
179 1 25.5083 18.9063 0
180 1 29.5115 17.1678 0
181 1 4.06702 21.6726 0
182 1 4.47623 12.5427 0
183 1 26.3759 10.6391 0
184 1 22.6724 26.8491 0
185 1 11.3748 8.40904 0
186 1 19.0464 23.4429 0
187 1 0.890895 14.3639 0
188 1 28.1427 27.8269 0
189 1 28.9225 23.7108 0
190 1 25.642 22.0528 0
191 1 14.1056 3.61565 0
192 1 9.89016 7.64161 0
193 1 23.1831 19.2619 0
194 1 26.1139 1.6796 0
ITEM: TIMESTEP
1425
ITEM: NUMBER OF ATOMS
194
ITEM: BOX BOUNDS pp pp pp
0.0000000000000000e+00 3.0000000000000000e+01
0.0000000000000000e+00 3.0000000000000000e+01
-5.0000000000000000e-01 5.0000000000000000e-01
ITEM: ATOMS id type x y z
1 1 26.103 3.64915 0
2 1 22.0053 14.2017 0
3 1 20.0168 28.4813 0
4 1 12.49 18.004 0
5 1 1.92586 29.9832 0
6 1 15.0035 0.923657 0
7 1 8.60889 20.5574 0
8 1 21.5411 20.2214 0
9 1 19.5132 27.4181 0
10 1 18.4951 3.29644 0
11 1 0.618467 12.6911 0
12 1 1.49538 5.38976 0
13 1 20.244 25.9379 0
14 1 25.8944 29.0246 0
15 1 15.4617 4.97492 0
16 1 6.89422 9.42616 0
17 1 2.0011 27.8771 0
18 1 17.7175 9.04741 0
19 1 20.9235 29.1193 0
20 1 6.64298 19.3416 0
21 1 14.1479 28.6543 0
22 1 21.1433 6.57202 0
23 1 4.88116 17.6607 0
24 1 24.7819 11.0577 0
25 1 27.7228 8.08429 0
26 1 13.2344 24.1007 0
27 1 1.90508 19.1484 0
28 1 20.0151 0.892962 0
29 1 15.1218 6.60313 0
30 1 21.7334 25.6456 0
31 1 7.3306 27.0337 0
32 1 28.9867 28.9768 0
33 1 16.3658 21.2481 0
34 1 2.12646 12.7898 0
35 1 15.7491 0.308372 0
36 1 29.6526 8.4743 0
37 1 21.5121 11.5349 0
38 1 21.7471 8.39608 0
39 1 0.990454 19.4103 0
40 1 14.5393 4.90172 0
41 1 28.5514 5.37504 0
42 1 0.955211 11.6401 0
43 1 2.1862 18.0009 0
44 1 1.66314 26.5602 0
45 1 24.1376 25.9901 0
46 1 4.12554 6.49165 0
47 1 14.9846 18.9573 0
48 1 13.3866 0.769969 0
49 1 28.3914 29.8445 0
50 1 6.61236 21.1275 0
51 1 21.7671 18.8116 0
52 1 12.0374 26.3298 0
53 1 4.82137 15.2691 0
54 1 27.3059 26.0349 0
55 1 24.2489 18.1483 0
56 1 3.51856 5.23105 0
57 1 18.0813 15.6444 0
58 1 5.02767 2.37123 0
59 1 15.3338 14.4459 0
60 1 24.4845 27.9634 0
61 1 27.3845 16.831 0
62 1 25.6985 2.91334 0
63 1 21.0412 0.611988 0
64 1 19.3833 19.2878 0
65 1 29.3765 27.0163 0
66 1 6.17529 16.6011 0
67 1 25.4853 24.642 0
68 1 7.24034 14.1071 0
69 1 18.3505 29.1461 0
70 1 10.9237 16.8838 0
71 1 27.3665 29.384 0
72 1 18.3653 27.7882 0
73 1 9.62156 28.6044 0
74 1 18.48 14.8063 0
75 1 6.53187 27.4669 0
76 1 19.1993 25.4006 0
77 1 11.4317 24.022 0
78 1 6.45807 20.3563 0
79 1 13.5708 15.8278 0
80 1 5.22761 0.0369375 0
81 1 2.24222 22.9419 0
82 1 27.22 27.2156 0
83 1 12.2191 16.3095 0
84 1 26.4378 6.12487 0
85 1 12.6479 7.87697 0
86 1 22.6899 21.0244 0
87 1 14.9056 23.6886 0
88 1 26.342 20.4575 0
89 1 0.951924 18.3692 0
90 1 13.7663 25.0073 0
91 1 6.94489 4.98727 0
92 1 24.5125 15.5972 0
93 1 27.186 11.7805 0
94 1 3.56343 22.5577 0
95 1 23.6841 20.5927 0
96 1 5.27093 25.4726 0
97 1 23.9514 0.160628 0
98 1 10.3391 5.84244 0
99 1 17.094 9.56625 0
100 1 21.4897 21.4264 0
101 1 5.15114 24.0761 0
102 1 13.016 22.4253 0
103 1 22.3861 12.5138 0
104 1 11.2982 4.55976 0
105 1 16.3044 18.2211 0
106 1 7.12907 15.8761 0
107 1 10.9296 21.8979 0
108 1 10.091 8.73259 0
109 1 14.0498 23.3663 0
110 1 2.78805 7.68028 0
111 1 10.0387 0.9168 0
112 1 1.76931 9.93749 0
113 1 7.76586 19.9412 0
114 1 29.0421 4.39389 0
115 1 23.2526 7.68187 0
116 1 8.61315 1.57344 0
117 1 20.052 21.0435 0
118 1 13.3819 12.349 0
119 1 0.214392 7.71253 0
120 1 16.1941 2.67763 0
121 1 24.0756 21.6087 0
122 1 16.6647 16.7 0
123 1 19.6702 11.5559 0
124 1 8.97662 10.203 0
125 1 28.1516 11.6606 0
126 1 4.07123 18.3675 0
127 1 13.8607 1.9596 0
128 1 26.9085 18.7649 0
129 1 12.9797 13.603 0
130 1 2.7765 10.5043 0
131 1 20.1736 3.24773 0
132 1 1.35345 20.4823 0
133 1 10.7355 0.250876 0
134 1 8.60103 5.56088 0
135 1 3.25525 29.559 0
136 1 19.969 24.8317 0
137 1 24.6972 7.86415 0
138 1 24.4242 16.878 0
139 1 5.75197 28.1349 0
140 1 0.941101 1.14991 0
141 1 28.8337 15.9932 0
142 1 9.05177 8.13474 0
143 1 17.7363 7.40508 0
144 1 29.6999 25.4793 0
145 1 16.1225 15.6967 0
146 1 4.03167 15.774 0
147 1 6.3385 4.14576 0
148 1 15.934 27.0951 0
149 1 11.2258 1.15717 0
150 1 8.2134 16.7314 0
151 1 9.03892 11.3561 0
152 1 7.78266 18.6847 0
153 1 22.7498 4.19884 0
154 1 15.4863 1.66346 0
155 1 17.3799 4.5787 0
156 1 25.029 8.95906 0
157 1 18.4454 12.7973 0
158 1 15.7396 9.2209 0
159 1 10.2463 9.73941 0
160 1 25.8373 27.2045 0
161 1 20.4423 16.8096 0
162 1 19.0636 20.1889 0
163 1 27.2211 19.6862 0
164 1 26.1156 6.9283 0
165 1 10.4369 20.6765 0
166 1 6.26934 6.21779 0
167 1 23.2847 14.4733 0
168 1 25.1876 26.4471 0
169 1 5.97645 10.0913 0
170 1 28.8832 19.8298 0
171 1 0.351435 21.6562 0
172 1 0.841482 2.81348 0
173 1 3.62947 9.74022 0
174 1 12.7953 2.89847 0
175 1 19.705 9.11918 0
176 1 21.4874 1.42107 0
177 1 21.0383 15.832 0
178 1 3.49581 20.5523 0
179 1 25.1097 19.4377 0
180 1 29.1977 17.0722 0
181 1 4.13309 21.1204 0
182 1 4.24072 12.3176 0
183 1 26.4092 10.5479 0
184 1 22.5287 26.3463 0
185 1 11.0807 8.46828 0
186 1 18.813 23.6586 0
187 1 0.909438 14.3553 0
188 1 28.1199 27.5868 0
189 1 28.6908 23.4307 0
190 1 25.8418 22.3455 0
191 1 13.9909 3.68591 0
192 1 9.98257 7.64511 0
193 1 23.1441 19.3649 0
194 1 25.7085 2.04835 0
ITEM: TIMESTEP
1440
ITEM: NUMBER OF ATOMS
194
ITEM: BOX BOUNDS pp pp pp
0.0000000000000000e+00 3.0000000000000000e+01
0.0000000000000000e+00 3.0000000000000000e+01
-5.0000000000000000e-01 5.0000000000000000e-01
ITEM: ATOMS id type x y z
1 1 26.4973 3.75625 0
2 1 21.7661 14.2876 0
3 1 20.0381 28.2503 0
4 1 12.775 17.8615 0
5 1 1.64041 0.0459141 0
6 1 14.9223 0.715362 0
7 1 8.4145 20.6921 0
8 1 21.6219 20.5497 0
9 1 19.6268 27.0142 0
10 1 18.5826 3.35777 0
11 1 0.644179 12.4219 0
12 1 1.23077 5.88174 0
13 1 20.4031 25.9698 0
14 1 25.9291 28.893 0
15 1 15.465 4.735 0
16 1 6.92116 9.69997 0
17 1 1.92838 27.4695 0
18 1 17.4337 8.69541 0
19 1 20.5976 28.9879 0
20 1 6.91971 19.7686 0
21 1 14.1847 28.5388 0
22 1 21.0736 6.09143 0
23 1 5.02626 17.8857 0
24 1 24.8174 10.4657 0
25 1 27.4665 8.31362 0
26 1 13.0806 24.3982 0
27 1 1.7084 19.0335 0
28 1 19.5994 1.27035 0
29 1 15.1448 6.39162 0
30 1 21.8332 25.3571 0
31 1 7.08504 26.9783 0
32 1 29.3655 28.502 0
33 1 16.127 21.4809 0
34 1 1.97686 13.0372 0
35 1 16.0855 0.464396 0
36 1 29.7736 8.94476 0
37 1 21.742 11.7164 0
38 1 21.9028 8.2003 0
39 1 0.640367 19.2332 0
40 1 14.2236 4.86889 0
41 1 28.746 5.46472 0
42 1 0.79669 11.5283 0
43 1 2.19675 18.012 0
44 1 1.41917 26.2125 0
45 1 24.3218 26.2358 0
46 1 3.57769 6.76455 0
47 1 14.9534 18.9678 0
48 1 13.2194 0.688642 0
49 1 28.3381 29.9639 0
50 1 6.63432 21.6049 0
51 1 21.9527 18.5569 0
52 1 11.7302 25.9377 0
53 1 5.38067 15.1908 0
54 1 27.4952 25.6039 0
55 1 24.1645 18.0793 0
56 1 3.96925 5.17665 0
57 1 18.3724 15.5807 0
58 1 4.91845 2.32723 0
59 1 15.5258 14.3575 0
60 1 23.8424 27.5705 0
61 1 27.6257 16.6332 0
62 1 25.4195 3.12685 0
63 1 20.8811 0.567743 0
64 1 19.5443 19.2715 0
65 1 29.4558 27.2131 0
66 1 6.39467 16.7406 0
67 1 25.9107 24.5717 0
68 1 6.84827 14.0039 0
69 1 18.5337 29.1534 0
70 1 11.1153 16.8828 0
71 1 27.2967 29.0289 0
72 1 18.2468 27.7548 0
73 1 9.45642 28.557 0
74 1 18.304 14.5082 0
75 1 6.35529 27.515 0
76 1 19.209 25.1927 0
77 1 11.6016 24.4562 0
78 1 6.14182 20.3882 0
79 1 13.6031 15.7112 0
80 1 5.33846 0.100216 0
81 1 2.5088 22.9845 0
82 1 27.207 27.0859 0
83 1 12.4903 15.8367 0
84 1 26.3594 5.82255 0
85 1 12.9624 8.12105 0
86 1 22.4845 21.3041 0
87 1 14.547 24.0065 0
88 1 25.9671 20.294 0
89 1 1.01678 18.2815 0
90 1 14.1668 24.7842 0
91 1 6.76027 5.03306 0
92 1 24.6288 15.4461 0
93 1 26.6451 11.9066 0
94 1 3.52618 22.8799 0
95 1 23.6342 21.0669 0
96 1 5.07482 24.9573 0
97 1 23.9343 0.305755 0
98 1 10.4656 5.89259 0
99 1 16.8601 9.9778 0
100 1 21.581 21.4297 0
101 1 5.10421 24.139 0
102 1 12.5861 22.602 0
103 1 22.4311 12.851 0
104 1 11.4788 4.80733 0
105 1 15.9925 18.5766 0
106 1 7.22158 15.9429 0
107 1 11.1396 21.6322 0
108 1 9.44474 8.63517 0
109 1 13.9964 22.9022 0
110 1 2.5951 7.8009 0
111 1 10.248 0.778305 0
112 1 1.43453 10.1682 0
113 1 7.8528 19.4859 0
114 1 28.7939 4.34107 0
115 1 23.354 7.55681 0
116 1 8.6501 1.37624 0
117 1 19.9773 20.911 0
118 1 13.2427 12.3793 0
119 1 0.50971 8.12277 0
120 1 16.3522 2.55501 0
121 1 24.4768 21.5384 0
122 1 17.2478 16.2125 0
123 1 19.902 11.4435 0
124 1 8.58389 9.83113 0
125 1 27.8251 11.616 0
126 1 4.1107 18.8709 0
127 1 14.1884 2.0318 0
128 1 26.7202 19.0145 0
129 1 13.2614 13.8484 0
130 1 2.76403 10.0567 0
131 1 20.2033 3.49977 0
132 1 1.2905 20.7152 0
133 1 11.0552 0.0905684 0
134 1 8.92566 5.78658 0
135 1 3.39637 29.4053 0
136 1 20.1675 24.5653 0
137 1 24.6235 7.71011 0
138 1 24.292 16.6976 0
139 1 5.82521 28.2931 0
140 1 0.929863 1.15066 0
141 1 29.254 15.8178 0
142 1 9.09457 7.80204 0
143 1 17.7361 7.94821 0
144 1 29.3504 25.5405 0
145 1 16.4384 15.7669 0
146 1 3.87146 15.9374 0
147 1 6.39568 4.07899 0
148 1 16.1411 27.4514 0
149 1 11.6432 1.26291 0
150 1 8.62232 16.8704 0
151 1 8.78146 12.0819 0
152 1 7.43738 18.7423 0
153 1 22.8944 3.9944 0
154 1 15.6212 1.54802 0
155 1 17.3833 4.34866 0
156 1 25.3217 9.21575 0
157 1 18.5802 12.9687 0
158 1 15.4493 9.43879 0
159 1 10.2875 10.172 0
160 1 26.0388 27.1312 0
161 1 20.6163 16.9107 0
162 1 18.7792 20.4772 0
163 1 27.07 20.0687 0
164 1 26.1636 7.36737 0
165 1 10.8524 20.8713 0
166 1 6.30423 6.4257 0
167 1 23.3285 14.6086 0
168 1 25.215 26.0896 0
169 1 6.06386 10.1846 0
170 1 29.1197 19.7192 0
171 1 -0.0540914 21.4893 0
172 1 0.971921 3.0465 0
173 1 3.52086 9.59919 0
174 1 12.969 2.89083 0
175 1 19.7887 8.87164 0
176 1 21.1901 1.58413 0
177 1 21.3981 15.7052 0
178 1 3.4352 20.3365 0
179 1 24.7111 19.9689 0
180 1 28.8821 16.9746 0
181 1 4.58278 20.8186 0
182 1 4.0049 12.0923 0
183 1 26.443 10.4595 0
184 1 22.5665 26.002 0
185 1 11.3148 8.33091 0
186 1 18.5809 23.8762 0
187 1 0.927968 14.3449 0
188 1 28.1709 27.374 0
189 1 28.4593 23.1506 0
190 1 26.0413 22.6376 0
191 1 13.8756 3.75764 0
192 1 10.0994 7.63764 0
193 1 23.1038 19.4691 0
194 1 25.3218 2.04744 0
ITEM: TIMESTEP
1455
ITEM: NUMBER OF ATOMS
194
ITEM: BOX BOUNDS pp pp pp
0.0000000000000000e+00 3.0000000000000000e+01
0.0000000000000000e+00 3.0000000000000000e+01
-5.0000000000000000e-01 5.0000000000000000e-01
ITEM: ATOMS id type x y z
1 1 26.9249 3.90518 0
2 1 21.529 14.3753 0
3 1 19.9798 27.9138 0
4 1 13.0596 17.7182 0
5 1 1.35336 0.112117 0
6 1 14.7858 0.446649 0
7 1 8.21699 20.8225 0
8 1 21.7207 20.6259 0
9 1 19.7415 26.6132 0
10 1 18.6699 3.42035 0
11 1 0.601636 12.4891 0
12 1 0.966237 6.37395 0
13 1 20.559 25.9984 0
14 1 25.9679 28.7607 0
15 1 15.4705 4.4963 0
16 1 7.00969 9.942 0
17 1 1.85404 27.058 0
18 1 16.9076 8.88058 0
19 1 20.348 28.9592 0
20 1 7.26531 20.0454 0
21 1 14.2217 28.4236 0
22 1 21.004 5.61099 0
23 1 5.16933 18.1129 0
24 1 24.843 9.88259 0
25 1 27.2085 8.54198 0
26 1 12.9227 24.6894 0
27 1 1.73269 18.9004 0
28 1 19.188 1.64686 0
29 1 15.1676 6.17813 0
30 1 21.6874 24.8551 0
31 1 7.01736 26.7948 0
32 1 29.7575 28.1182 0
33 1 15.888 21.7137 0
34 1 1.82341 13.2839 0
35 1 16.4255 0.619839 0
36 1 29.8863 9.42634 0
37 1 21.9738 11.9018 0
38 1 22.06 8.00365 0
39 1 0.0832399 19.1477 0
40 1 13.9053 4.83556 0
41 1 28.9398 5.55471 0
42 1 0.704783 11.0909 0
43 1 2.20416 18.022 0
44 1 1.17643 25.8688 0
45 1 24.3266 26.4959 0
46 1 3.0277 7.03815 0
47 1 14.8622 18.9904 0
48 1 13.0526 0.60945 0
49 1 28.2827 0.0799533 0
50 1 6.66918 22.1367 0
51 1 22.1404 18.3042 0
52 1 11.4129 25.5749 0
53 1 5.94042 15.1131 0
54 1 27.6843 25.176 0
55 1 24.0799 18.0077 0
56 1 4.41984 5.12395 0
57 1 18.6845 15.5859 0
58 1 4.80936 2.28318 0
59 1 15.7184 14.2703 0
60 1 23.2021 27.1737 0
61 1 27.8558 16.4285 0
62 1 25.109 3.33802 0
63 1 20.7029 0.48681 0
64 1 19.7046 19.2578 0
65 1 29.5147 27.3183 0
66 1 6.61514 16.8787 0
67 1 26.3359 24.5026 0
68 1 6.45564 13.9019 0
69 1 18.7175 29.1569 0
70 1 11.3084 16.8814 0
71 1 27.2262 28.6745 0
72 1 18.1313 27.724 0
73 1 9.29147 28.51 0
74 1 18.1442 14.1261 0
75 1 6.19543 27.457 0
76 1 19.0233 25.1222 0
77 1 11.7848 24.8603 0
78 1 5.79792 20.5121 0
79 1 13.6524 15.596 0
80 1 5.44916 0.162797 0
81 1 2.67466 23.0242 0
82 1 27.1509 26.9368 0
83 1 12.7436 15.3625 0
84 1 26.282 5.51811 0
85 1 13.2755 8.36531 0
86 1 22.4844 21.5553 0
87 1 14.4222 23.7628 0
88 1 25.59 20.128 0
89 1 1.07314 18.1243 0
90 1 14.3587 25.1437 0
91 1 6.587 5.11001 0
92 1 24.742 15.2986 0
93 1 26.1041 12.0295 0
94 1 3.59016 23.2051 0
95 1 23.5034 21.4698 0
96 1 4.85146 24.9514 0
97 1 23.9173 0.450991 0
98 1 10.5914 5.9416 0
99 1 16.5726 10.4447 0
100 1 21.4505 21.7116 0
101 1 5.0841 23.6921 0
102 1 12.1579 22.7794 0
103 1 22.4731 13.1863 0
104 1 11.6575 5.05682 0
105 1 15.7405 18.9199 0
106 1 7.31294 16.0115 0
107 1 11.5218 21.822 0
108 1 8.87802 8.68807 0
109 1 13.9155 22.4221 0
110 1 2.40417 7.91959 0
111 1 10.2935 0.790031 0
112 1 1.1086 10.3896 0
113 1 8.13212 19.3262 0
114 1 28.5463 4.28792 0
115 1 23.4582 7.43309 0
116 1 8.68819 1.17863 0
117 1 19.9 20.7756 0
118 1 13.1035 12.4124 0
119 1 0.814115 8.52217 0
120 1 16.5071 2.42814 0
121 1 24.958 21.5341 0
122 1 17.8974 15.8062 0
123 1 20.1342 11.3316 0
124 1 8.19255 9.45737 0
125 1 27.4975 11.5711 0
126 1 4.15166 19.3737 0
127 1 14.5166 2.10221 0
128 1 26.5277 19.2588 0
129 1 13.5433 14.0919 0
130 1 2.55548 9.72332 0
131 1 20.2314 3.75133 0
132 1 1.22552 20.9458 0
133 1 11.5419 29.7841 0
134 1 9.25254 6.01317 0
135 1 3.53696 29.2518 0
136 1 20.5638 24.1644 0
137 1 24.5476 7.55683 0
138 1 24.1606 16.5162 0
139 1 5.70365 28.6862 0
140 1 0.921023 1.14823 0
141 1 29.6725 15.6455 0
142 1 9.02908 7.33054 0
143 1 18.0296 7.89813 0
144 1 29 25.6032 0
145 1 16.6502 15.7675 0
146 1 3.71233 16.1006 0
147 1 6.44059 3.98395 0
148 1 16.3482 27.8079 0
149 1 12.0581 1.36441 0
150 1 9.02981 17.0088 0
151 1 8.52402 12.8072 0
152 1 6.94789 18.4967 0
153 1 23.039 3.78996 0
154 1 15.8062 1.50097 0
155 1 17.3878 4.11711 0
156 1 25.6266 9.46267 0
157 1 18.7147 13.142 0
158 1 15.1617 9.65745 0
159 1 10.3269 10.6029 0
160 1 26.2313 27.0567 0
161 1 20.7923 17.0093 0
162 1 18.5006 20.7659 0
163 1 26.9206 20.4586 0
164 1 26.2104 7.8101 0
165 1 11.0967 20.6118 0
166 1 6.34005 6.63067 0
167 1 23.3719 14.7446 0
168 1 25.4226 25.7225 0
169 1 6.09136 10.3095 0
170 1 29.3548 19.6102 0
171 1 29.5418 21.321 0
172 1 1.10233 3.27893 0
173 1 3.60372 9.34384 0
174 1 13.1481 2.88468 0
175 1 19.8723 8.62398 0
176 1 20.9062 1.78322 0
177 1 21.7568 15.5781 0
178 1 3.28562 20.0567 0
179 1 24.3142 20.5041 0
180 1 28.5795 16.8808 0
181 1 5.02263 20.594 0
182 1 3.76885 11.8671 0
183 1 26.4753 10.373 0
184 1 22.8481 25.872 0
185 1 11.5456 8.19198 0
186 1 18.3511 24.0972 0
187 1 0.947186 14.3329 0
188 1 28.2775 27.1778 0
189 1 28.2279 22.8704 0
190 1 26.2403 22.9299 0
191 1 13.7582 3.82608 0
192 1 10.2485 7.62247 0
193 1 23.0628 19.5736 0
194 1 24.9332 2.00729 0
ITEM: TIMESTEP
1470
ITEM: NUMBER OF ATOMS
194
ITEM: BOX BOUNDS pp pp pp
0.0000000000000000e+00 3.0000000000000000e+01
0.0000000000000000e+00 3.0000000000000000e+01
-5.0000000000000000e-01 5.0000000000000000e-01
ITEM: ATOMS id type x y z
1 1 27.3526 4.055 0
2 1 21.2951 14.4662 0
3 1 19.9081 27.553 0
4 1 13.344 17.5745 0
5 1 1.06753 0.172825 0
6 1 14.6518 0.181308 0
7 1 8.0461 20.9835 0
8 1 21.8285 20.6425 0
9 1 19.8124 26.2397 0
10 1 18.7564 3.48384 0
11 1 0.561522 12.5579 0
12 1 0.701934 6.8666 0
13 1 20.7588 26.0011 0
14 1 26.0122 28.6266 0
15 1 15.4736 4.25861 0
16 1 7.16145 10.1564 0
17 1 1.77741 26.643 0
18 1 16.3345 9.14653 0
19 1 20.1084 28.9523 0
20 1 7.57161 20.2918 0
21 1 14.2589 28.3087 0
22 1 20.9341 5.12999 0
23 1 5.31294 18.3413 0
24 1 24.7314 9.37553 0
25 1 26.9563 8.77657 0
26 1 12.9163 24.9835 0
27 1 1.751 18.8429 0
28 1 18.778 2.02397 0
29 1 15.1902 5.96296 0
30 1 21.55 24.3633 0
31 1 6.9913 26.5791 0
32 1 0.260775 28.2089 0
33 1 15.6487 21.9467 0
34 1 1.66513 13.5317 0
35 1 16.7693 0.76914 0
36 1 30.0046 9.90696 0
37 1 22.2066 12.0908 0
38 1 22.2194 7.80606 0
39 1 29.9284 18.7516 0
40 1 13.5927 4.84094 0
41 1 29.1327 5.64074 0
42 1 0.300936 11.1764 0
43 1 2.2364 17.9835 0
44 1 0.935355 25.5288 0
45 1 24.3227 26.7582 0
46 1 2.50583 7.25773 0
47 1 14.5243 19.0416 0
48 1 12.8844 0.530105 0
49 1 28.2267 0.194994 0
50 1 6.70362 22.6672 0
51 1 22.3293 18.0527 0
52 1 10.8861 25.6268 0
53 1 6.5028 15.0331 0
54 1 27.8738 24.7494 0
55 1 23.9945 17.9341 0
56 1 4.87085 5.07142 0
57 1 19.4322 15.4639 0
58 1 4.70042 2.23903 0
59 1 15.9112 14.184 0
60 1 22.5646 26.7712 0
61 1 27.8131 16.0378 0
62 1 24.7986 3.54563 0
63 1 20.5242 0.408244 0
64 1 19.8649 19.247 0
65 1 29.4571 26.9471 0
66 1 6.83449 17.0193 0
67 1 26.762 24.4343 0
68 1 6.06199 13.8038 0
69 1 18.9031 29.1576 0
70 1 11.502 16.88 0
71 1 27.1513 28.319 0
72 1 18.0168 27.695 0
73 1 9.12657 28.463 0
74 1 17.9758 13.7546 0
75 1 5.99353 27.4329 0
76 1 18.8389 25.0504 0
77 1 12.0298 24.8461 0
78 1 6.36374 20.5171 0
79 1 13.802 15.5043 0
80 1 5.55995 0.22265 0
81 1 2.66794 23.0435 0
82 1 27.2521 26.7635 0
83 1 12.8979 14.8605 0
84 1 26.205 5.2129 0
85 1 13.5877 8.6096 0
86 1 22.5088 21.7931 0
87 1 14.3425 23.3673 0
88 1 25.2152 19.9622 0
89 1 1.10696 17.9434 0
90 1 14.5007 25.6515 0
91 1 6.41389 5.1907 0
92 1 24.8508 15.1541 0
93 1 25.5662 12.15 0
94 1 3.82912 23.5512 0
95 1 23.4388 21.8696 0
96 1 4.6219 25.0177 0
97 1 23.9008 0.596881 0
98 1 10.7155 5.98981 0
99 1 16.284 10.9091 0
100 1 21.2226 22.0662 0
101 1 5.068 23.1723 0
102 1 11.735 22.9851 0
103 1 22.5126 13.5205 0
104 1 11.8335 5.30872 0
105 1 15.7351 19.2345 0
106 1 7.40398 16.0783 0
107 1 11.9157 22.0267 0
108 1 8.43406 8.63275 0
109 1 13.8351 21.9453 0
110 1 2.18404 8.09407 0
111 1 10.34 0.800949 0
112 1 1.09466 10.0846 0
113 1 8.42484 19.1722 0
114 1 28.2984 4.23849 0
115 1 23.5451 7.30872 0
116 1 8.7277 0.980673 0
117 1 19.8202 20.6381 0
118 1 12.9646 12.4468 0
119 1 1.11712 8.92529 0
120 1 16.6603 2.29883 0
121 1 25.4365 21.5246 0
122 1 18.1136 15.5263 0
123 1 20.3668 11.2199 0
124 1 7.67769 9.19659 0
125 1 27.1656 11.5257 0
126 1 4.18877 19.8448 0
127 1 14.8466 2.17112 0
128 1 26.333 19.511 0
129 1 13.8238 14.3391 0
130 1 2.30907 9.40719 0
131 1 20.2581 4.0027 0
132 1 1.15941 21.176 0
133 1 12.0286 29.4812 0
134 1 9.59063 6.23202 0
135 1 3.67787 29.0985 0
136 1 20.9507 23.7572 0
137 1 24.488 7.40569 0
138 1 24.0307 16.3329 0
139 1 5.5819 29.0804 0
140 1 0.911098 1.15147 0
141 1 0.0901405 15.4743 0
142 1 8.95739 6.86406 0
143 1 18.3694 7.76943 0
144 1 28.6461 25.6669 0
145 1 16.8591 15.7646 0
146 1 3.55331 16.2637 0
147 1 6.48442 3.88736 0
148 1 16.5562 28.1643 0
149 1 12.4737 1.46439 0
150 1 9.43689 17.1469 0
151 1 8.26645 13.5324 0
152 1 6.45277 18.2446 0
153 1 23.1841 3.58542 0
154 1 15.9818 1.46244 0
155 1 17.3942 3.88373 0
156 1 26.0561 9.61141 0
157 1 18.8583 13.3084 0
158 1 14.876 9.87655 0
159 1 10.3661 11.0336 0
160 1 26.2652 27.006 0
161 1 20.9694 17.1073 0
162 1 18.2261 21.0542 0
163 1 26.7657 20.8434 0
164 1 26.2487 8.24863 0
165 1 11.3253 20.3097 0
166 1 6.37619 6.83338 0
167 1 23.4161 14.8817 0
168 1 25.6373 25.3552 0
169 1 6.05976 10.4602 0
170 1 29.1923 19.8109 0
171 1 29.1385 21.1512 0
172 1 1.23271 3.51108 0
173 1 3.72116 9.07032 0
174 1 13.3281 2.87504 0
175 1 19.9556 8.37609 0
176 1 20.6205 1.97852 0
177 1 22.1148 15.4466 0
178 1 3.12515 19.7802 0
179 1 23.9209 21.0421 0
180 1 28.5512 16.9712 0
181 1 4.57155 20.5147 0
182 1 3.53267 11.6418 0
183 1 26.5226 10.3089 0
184 1 23.1303 25.7449 0
185 1 11.774 8.05165 0
186 1 18.1229 24.3207 0
187 1 0.968009 14.3181 0
188 1 28.3894 26.9819 0
189 1 27.9961 22.5901 0
190 1 26.4397 23.2239 0
191 1 13.6384 3.8575 0
192 1 10.3975 7.6071 0
193 1 23.0215 19.6788 0
194 1 24.5448 1.97056 0
ITEM: TIMESTEP
1485
ITEM: NUMBER OF ATOMS
194
ITEM: BOX BOUNDS pp pp pp
0.0000000000000000e+00 3.0000000000000000e+01
0.0000000000000000e+00 3.0000000000000000e+01
-5.0000000000000000e-01 5.0000000000000000e-01
ITEM: ATOMS id type x y z
1 1 27.3391 4.13384 0
2 1 21.0655 14.5599 0
3 1 19.8362 27.1905 0
4 1 13.6284 17.4309 0
5 1 0.788097 0.181087 0
6 1 14.5178 -0.0833171 0
7 1 8.08421 21.441 0
8 1 21.9397 20.664 0
9 1 19.8121 25.894 0
10 1 18.8412 3.54569 0
11 1 0.523101 12.6258 0
12 1 0.43851 7.35973 0
13 1 21.0292 25.9792 0
14 1 26.0608 28.4898 0
15 1 15.4759 4.02151 0
16 1 7.3157 10.371 0
17 1 1.69822 26.2252 0
18 1 15.76 9.41412 0
19 1 19.8899 28.9392 0
20 1 7.69665 20.2294 0
21 1 14.2963 28.1943 0
22 1 20.9085 4.69021 0
23 1 5.37957 18.6091 0
24 1 24.6098 8.87187 0
25 1 26.9969 9.13206 0
26 1 13.306 25.304 0
27 1 1.74244 18.845 0
28 1 18.3685 2.40422 0
29 1 15.2125 5.74644 0
30 1 21.6516 24.1344 0
31 1 6.9622 26.3662 0
32 1 0.765975 28.3057 0
33 1 15.4082 22.1801 0
34 1 1.55959 13.7184 0
35 1 17.1245 0.910037 0
36 1 0.122882 10.3878 0
37 1 22.4396 12.2826 0
38 1 22.3823 7.60717 0
39 1 29.8759 18.2682 0
40 1 13.2786 4.90751 0
41 1 29.325 5.72533 0
42 1 -0.148733 11.3377 0
43 1 2.29841 17.8903 0
44 1 0.69614 25.1921 0
45 1 24.3171 27.019 0
46 1 2.06484 7.28505 0
47 1 14.1739 19.0928 0
48 1 12.7224 0.427006 0
49 1 28.1705 0.309797 0
50 1 6.73719 23.1974 0
51 1 22.519 17.8012 0
52 1 10.3463 25.6981 0
53 1 7.067 14.9521 0
54 1 28.0817 24.3274 0
55 1 23.9076 17.8593 0
56 1 5.32377 5.01877 0
57 1 20.2086 15.335 0
58 1 4.59164 2.19476 0
59 1 16.1044 14.0983 0
60 1 21.9293 26.3647 0
61 1 27.7251 15.6101 0
62 1 24.4861 3.75138 0
63 1 20.3446 0.329261 0
64 1 20.0251 19.2401 0
65 1 29.4172 26.5648 0
66 1 7.05029 17.1667 0
67 1 27.1703 24.3649 0
68 1 5.66954 13.7098 0
69 1 19.0678 29.1621 0
70 1 11.6957 16.8787 0
71 1 27.0719 27.9605 0
72 1 17.9016 27.6677 0
73 1 8.96166 28.4161 0
74 1 17.7708 13.4065 0
75 1 5.79428 27.4075 0
76 1 18.691 25.01 0
77 1 11.8928 24.7859 0
78 1 6.911 20.5301 0
79 1 13.9675 15.4386 0
80 1 5.67457 0.308875 0
81 1 2.65994 23.0629 0
82 1 27.4371 26.5755 0
83 1 13.0193 14.3543 0
84 1 26.1292 4.90634 0
85 1 13.9 8.85447 0
86 1 22.3912 22.0186 0
87 1 14.2623 22.9695 0
88 1 24.8448 19.7976 0
89 1 1.13584 17.7604 0
90 1 14.6415 26.1584 0
91 1 6.23949 5.26824 0
92 1 24.9547 15.0117 0
93 1 25.0296 12.2698 0
94 1 4.07427 23.8974 0
95 1 23.4471 22.4256 0
96 1 4.39182 25.0815 0
97 1 23.8853 0.745198 0
98 1 10.8585 6.03197 0
99 1 15.9947 11.3719 0
100 1 20.9972 22.3863 0
101 1 5.0484 22.6543 0
102 1 11.3129 23.2604 0
103 1 22.5505 13.8551 0
104 1 12.0062 5.56282 0
105 1 15.7418 19.5485 0
106 1 7.49432 16.1395 0
107 1 12.3094 22.1614 0
108 1 8.1763 8.41755 0
109 1 13.7555 21.4711 0
110 1 1.87013 8.39151 0
111 1 10.3854 0.811898 0
112 1 1.06977 9.97819 0
113 1 8.71477 19.0215 0
114 1 28.4914 4.26292 0
115 1 23.5218 7.17492 0
116 1 8.7688 0.78252 0
117 1 19.7398 20.4973 0
118 1 12.8257 12.4815 0
119 1 1.35061 9.04935 0
120 1 16.8208 2.1766 0
121 1 25.8964 21.5194 0
122 1 18.2964 15.2526 0
123 1 20.5997 11.1084 0
124 1 6.97674 9.09368 0
125 1 26.8315 11.4802 0
126 1 3.89817 19.6884 0
127 1 15.1799 2.23815 0
128 1 26.1346 19.769 0
129 1 14.1214 14.5644 0
130 1 2.20522 9.16748 0
131 1 20.2387 4.21185 0
132 1 1.09297 21.406 0
133 1 12.5175 29.1821 0
134 1 10.0273 6.35194 0
135 1 3.81954 28.9454 0
136 1 21.1009 23.1192 0
137 1 24.5358 7.26615 0
138 1 23.9013 16.1465 0
139 1 5.45586 29.447 0
140 1 0.894698 1.207 0
141 1 0.509235 15.3009 0
142 1 8.77469 6.50495 0
143 1 18.7103 7.64133 0
144 1 28.2888 25.733 0
145 1 17.0728 15.76 0
146 1 3.39414 16.4271 0
147 1 6.52761 3.79558 0
148 1 16.7661 28.52 0
149 1 12.8822 1.58574 0
150 1 9.84406 17.2851 0
151 1 8.00834 14.258 0
152 1 6.03651 17.9496 0
153 1 23.3313 3.38073 0
154 1 16.1339 1.42825 0
155 1 17.4031 3.64835 0
156 1 26.2238 9.49363 0
157 1 19.0382 13.4529 0
158 1 14.592 10.0947 0
159 1 10.4052 11.4643 0
160 1 26.2188 26.9734 0
161 1 21.1478 17.2057 0
162 1 17.9532 21.3421 0
163 1 26.6255 21.2173 0
164 1 26.0627 8.52224 0
165 1 11.5543 20.0086 0
166 1 6.41232 7.0345 0
167 1 23.4601 15.0212 0
168 1 25.8546 24.9874 0
169 1 6.02599 10.6118 0
170 1 28.9317 20.0959 0
171 1 28.7345 20.9831 0
172 1 1.36308 3.74311 0
173 1 3.83475 8.79706 0
174 1 13.5015 2.83619 0
175 1 20.0379 8.12769 0
176 1 20.3337 2.17211 0
177 1 22.4729 15.3101 0
178 1 2.93661 19.5043 0
179 1 23.5922 21.4315 0
180 1 28.5687 17.0985 0
181 1 4.46829 21.0611 0
182 1 3.29647 11.4166 0
183 1 26.7737 10.5519 0
184 1 23.4117 25.6221 0
185 1 11.9999 7.91036 0
186 1 17.8601 24.5145 0
187 1 0.931948 14.3642 0
188 1 28.4783 26.785 0
189 1 27.7633 22.3099 0
190 1 26.6404 23.5196 0
191 1 13.5281 3.85525 0
192 1 10.547 7.5889 0
193 1 22.9793 19.786 0
194 1 24.1554 1.93359 0
ITEM: TIMESTEP
1500
ITEM: NUMBER OF ATOMS
194
ITEM: BOX BOUNDS pp pp pp
0.0000000000000000e+00 3.0000000000000000e+01
0.0000000000000000e+00 3.0000000000000000e+01
-5.0000000000000000e-01 5.0000000000000000e-01
ITEM: ATOMS id type x y z
1 1 27.0751 4.17581 0
2 1 20.9756 14.3948 0
3 1 19.7648 26.8234 0
4 1 13.9127 17.2876 0
5 1 0.507891 0.156333 0
6 1 14.3828 29.6514 0
7 1 8.13259 21.9177 0
8 1 22.0553 20.6869 0
9 1 19.806 25.5516 0
10 1 18.9236 3.60403 0
11 1 0.48527 12.6935 0
12 1 0.177764 7.85364 0
13 1 20.6789 25.6899 0
14 1 26.1117 28.3494 0
15 1 15.4777 3.7842 0
16 1 7.46462 10.5839 0
17 1 1.61655 25.8051 0
18 1 15.1813 9.68379 0
19 1 19.9932 28.838 0
20 1 8.14371 20.0149 0
21 1 14.3336 28.0808 0
22 1 21.2406 4.53061 0
23 1 5.28076 18.9881 0
24 1 24.4917 8.36587 0
25 1 27.4468 9.35001 0
26 1 13.6976 25.6253 0
27 1 1.73042 18.8512 0
28 1 17.9613 2.7852 0
29 1 15.2347 5.52878 0
30 1 21.8237 24.0014 0
31 1 6.93146 26.1546 0
32 1 1.27103 28.4026 0
33 1 15.1653 22.4146 0
34 1 1.60781 13.7417 0
35 1 17.4804 1.05427 0
36 1 0.220058 10.8451 0
37 1 22.6728 12.4762 0
38 1 22.5461 7.40805 0
39 1 29.8266 17.7831 0
40 1 12.96 4.98811 0
41 1 29.5168 5.80909 0
42 1 29.3854 11.5448 0
43 1 2.36131 17.7907 0
44 1 0.458647 24.8583 0
45 1 24.3113 27.2787 0
46 1 1.62923 7.24261 0
47 1 13.825 19.1437 0
48 1 12.5616 0.316068 0
49 1 28.1144 0.424566 0
50 1 6.77003 23.7272 0
51 1 22.7102 17.5489 0
52 1 9.80738 25.7688 0
53 1 7.10305 15.1894 0
54 1 28.4451 23.8969 0
55 1 23.8169 17.7835 0
56 1 5.46911 4.84064 0
57 1 20.8477 15.4653 0
58 1 4.48301 2.1503 0
59 1 16.2982 14.0127 0
60 1 21.9187 26.2246 0
61 1 27.6379 15.1838 0
62 1 24.1723 3.95703 0
63 1 20.1633 0.24746 0
64 1 20.1844 19.238 0
65 1 29.4519 26.1618 0
66 1 7.26192 17.3175 0
67 1 27.4771 24.3806 0
68 1 5.27783 13.6165 0
69 1 18.9116 29.2564 0
70 1 11.8893 16.8777 0
71 1 26.9896 27.5966 0
72 1 17.7846 27.6429 0
73 1 8.79675 28.3693 0
74 1 17.5656 13.0605 0
75 1 5.59655 27.3812 0
76 1 18.6122 25.015 0
77 1 11.7539 24.725 0
78 1 7.1272 20.6742 0
79 1 14.0883 15.5904 0
80 1 5.84026 0.593789 0
81 1 2.65349 23.083 0
82 1 27.547 26.4549 0
83 1 13.1339 13.8516 0
84 1 26.0559 4.59781 0
85 1 14.2145 9.10268 0
86 1 22.2604 22.239 0
87 1 14.1826 22.5683 0
88 1 24.4784 19.6334 0
89 1 1.1669 17.5836 0
90 1 14.7806 26.6648 0
91 1 6.37404 5.46889 0
92 1 25.0545 14.871 0
93 1 24.4934 12.3894 0
94 1 4.32047 24.235 0
95 1 23.4294 23.102 0
96 1 4.16071 25.1515 0
97 1 23.8707 0.894921 0
98 1 11.2068 5.99226 0
99 1 15.7049 11.8339 0
100 1 20.6395 21.7639 0
101 1 5.03307 22.1426 0
102 1 10.8926 23.5365 0
103 1 22.5885 14.1932 0
104 1 12.1789 5.81682 0
105 1 15.7467 19.8621 0
106 1 7.58316 16.1952 0
107 1 12.7036 22.2961 0
108 1 7.9172 8.20255 0
109 1 13.6758 20.9996 0
110 1 1.66754 8.08856 0
111 1 10.4293 0.822788 0
112 1 0.976395 10.2761 0
113 1 9.0033 18.8724 0
114 1 28.9325 4.32715 0
115 1 23.4449 7.03672 0
116 1 8.81156 0.584272 0
117 1 19.6604 20.3521 0
118 1 12.6871 12.5172 0
119 1 0.959297 9.00291 0
120 1 17.0081 2.07872 0
121 1 25.751 21.7585 0
122 1 18.4758 14.9795 0
123 1 20.8328 10.997 0
124 1 6.27743 8.99298 0
125 1 26.4805 11.6031 0
126 1 3.65421 19.5093 0
127 1 15.5178 2.30283 0
128 1 25.9321 20.0301 0
129 1 14.4705 14.5681 0
130 1 2.71591 9.34333 0
131 1 19.8592 4.13917 0
132 1 1.0265 21.6361 0
133 1 13.0081 28.888 0
134 1 10.2782 6.54729 0
135 1 3.96251 28.7926 0
136 1 21.3175 23.326 0
137 1 24.6366 7.13393 0
138 1 23.7759 15.9744 0
139 1 5.27745 29.6142 0
140 1 0.879078 1.29499 0
141 1 0.881855 15.3576 0
142 1 8.57696 6.15715 0
143 1 19.0545 7.51445 0
144 1 27.9763 25.7148 0
145 1 17.2906 15.7531 0
146 1 3.23443 16.5913 0
147 1 6.56954 3.70724 0
148 1 16.9787 28.8738 0
149 1 13.2909 1.71326 0
150 1 10.2516 17.4234 0
151 1 8.27929 14.6702 0
152 1 5.78919 17.5408 0
153 1 23.4808 3.17415 0
154 1 16.2563 1.37278 0
155 1 17.4114 3.41373 0
156 1 26.0411 9.60423 0
157 1 19.2178 13.597 0
158 1 14.3104 10.3082 0
159 1 10.4444 11.895 0
160 1 26.1774 26.9446 0
161 1 21.3286 17.3049 0
162 1 17.6808 21.6298 0
163 1 27.0874 21.3396 0
164 1 25.7911 8.66987 0
165 1 11.7833 19.7077 0
166 1 6.44863 7.23493 0
167 1 23.627 15.1198 0
168 1 26.0761 24.6172 0
169 1 5.9972 10.7618 0
170 1 28.7476 20.1223 0
171 1 28.2527 21.0747 0
172 1 1.49344 3.97512 0
173 1 3.9462 8.52405 0
174 1 13.6719 2.76202 0
175 1 20.1168 7.87805 0
176 1 20.0461 2.36569 0
177 1 22.7044 15.1943 0
178 1 2.67989 19.2126 0
179 1 23.2966 21.7024 0
180 1 28.5864 17.2253 0
181 1 4.37866 21.6382 0
182 1 3.06023 11.1912 0
183 1 27.0635 10.6615 0
184 1 23.6921 25.5015 0
185 1 12.2233 7.76823 0
186 1 17.531 24.6653 0
187 1 0.786588 14.341 0
188 1 28.5169 26.6261 0
189 1 27.5332 22.0338 0
190 1 26.7854 23.7444 0
191 1 13.4224 3.87239 0
192 1 10.6975 7.5655 0
193 1 22.935 19.8963 0
194 1 23.7645 1.89743 0
ITEM: TIMESTEP
1515
ITEM: NUMBER OF ATOMS
194
ITEM: BOX BOUNDS pp pp pp
0.0000000000000000e+00 3.0000000000000000e+01
0.0000000000000000e+00 3.0000000000000000e+01
-5.0000000000000000e-01 5.0000000000000000e-01
ITEM: ATOMS id type x y z
1 1 26.8468 4.21006 0
2 1 21.0335 13.9124 0
3 1 19.6949 26.449 0
4 1 14.1969 17.1436 0
5 1 0.228803 0.133378 0
6 1 14.2453 29.3831 0
7 1 8.17961 22.3922 0
8 1 22.1728 20.7126 0
9 1 19.3454 25.138 0
10 1 18.8766 3.57242 0
11 1 0.448034 12.762 0
12 1 -0.0800652 8.34661 0
13 1 20.5105 25.3596 0
14 1 26.165 28.2028 0
15 1 15.4797 3.54457 0
16 1 7.61033 10.7964 0
17 1 1.53262 25.3835 0
18 1 14.7889 10.101 0
19 1 20.1472 28.7241 0
20 1 8.62932 19.7819 0
21 1 14.3693 27.9688 0
22 1 21.5841 4.37816 0
23 1 5.18068 19.3667 0
24 1 24.3757 7.86209 0
25 1 27.8994 9.56902 0
26 1 14.0907 25.9482 0
27 1 1.58636 18.8138 0
28 1 17.9699 2.71102 0
29 1 15.2568 5.31007 0
30 1 22.2061 24.1514 0
31 1 6.90009 25.9435 0
32 1 1.77591 28.5001 0
33 1 14.9828 22.6509 0
34 1 1.68592 13.7387 0
35 1 17.8336 1.19846 0
36 1 0.244237 11.347 0
37 1 22.907 12.6708 0
38 1 22.6042 7.25441 0
39 1 29.778 17.2962 0
40 1 12.6438 5.06128 0
41 1 29.7082 5.89145 0
42 1 28.9106 11.7693 0
43 1 2.41918 17.6951 0
44 1 0.22204 24.5273 0
45 1 24.3061 27.5379 0
46 1 1.18332 6.85235 0
47 1 13.4761 19.1952 0
48 1 12.4025 0.204441 0
49 1 28.0583 0.539322 0
50 1 6.80278 24.257 0
51 1 22.8885 17.2915 0
52 1 9.26871 25.8393 0
53 1 6.70342 15.678 0
54 1 28.8458 23.4583 0
55 1 23.7361 17.7115 0
56 1 5.439 4.57993 0
57 1 21.3414 15.9132 0
58 1 4.3746 2.10561 0
59 1 16.4933 13.9265 0
60 1 22.1878 26.204 0
61 1 27.5507 14.7576 0
62 1 23.8668 4.17119 0
63 1 19.9801 0.161447 0
64 1 20.3415 19.2408 0
65 1 29.5128 25.7458 0
66 1 7.47185 17.4653 0
67 1 27.8413 24.5029 0
68 1 4.88621 13.5234 0
69 1 18.7055 29.367 0
70 1 12.0821 16.8771 0
71 1 26.9334 27.2853 0
72 1 17.6666 27.6207 0
73 1 8.63184 28.3226 0
74 1 17.3602 12.7161 0
75 1 5.39922 27.3546 0
76 1 18.5307 25.0225 0
77 1 11.6135 24.662 0
78 1 7.3081 20.8364 0
79 1 14.1954 15.7938 0
80 1 6.01667 0.908768 0
81 1 2.64744 23.1031 0
82 1 27.4182 26.619 0
83 1 13.2502 13.3476 0
84 1 25.9476 4.29697 0
85 1 14.3795 9.1811 0
86 1 22.1283 22.4621 0
87 1 14.0399 22.1635 0
88 1 24.1123 19.4699 0
89 1 1.2007 17.4118 0
90 1 14.9175 27.1711 0
91 1 6.68579 5.75077 0
92 1 25.1499 14.7317 0
93 1 23.9562 12.5089 0
94 1 4.59281 24.4599 0
95 1 23.4075 23.7744 0
96 1 3.90326 25.3337 0
97 1 23.8643 1.00421 0
98 1 11.5012 5.93665 0
99 1 15.415 12.2956 0
100 1 20.2756 21.1044 0
101 1 5.39238 21.861 0
102 1 10.4742 23.8146 0
103 1 22.6036 14.3473 0
104 1 12.4555 6.06827 0
105 1 15.7511 20.1755 0
106 1 7.67317 16.2544 0
107 1 13.1005 22.4302 0
108 1 7.6562 7.98719 0
109 1 13.5958 20.5299 0
110 1 1.51161 8.07724 0
111 1 10.4719 0.833404 0
112 1 0.966871 10.5102 0
113 1 9.29003 18.7256 0
114 1 29.3733 4.39296 0
115 1 23.4775 6.85445 0
116 1 8.85584 0.386038 0
117 1 19.5842 20.2034 0
118 1 12.5494 12.5557 0
119 1 0.526291 9.01393 0
120 1 17.214 2.00677 0
121 1 25.5475 22.0193 0
122 1 18.6532 14.7061 0
123 1 21.066 10.8857 0
124 1 5.57916 8.89234 0
125 1 26.1128 11.797 0
126 1 3.45279 19.3416 0
127 1 15.8606 2.36658 0
128 1 25.7279 20.2928 0
129 1 14.831 14.5198 0
130 1 3.23077 9.52191 0
131 1 19.5928 4.14324 0
132 1 0.960212 21.8664 0
133 1 13.502 28.5965 0
134 1 10.467 6.74402 0
135 1 4.10745 28.6409 0
136 1 21.3346 23.2822 0
137 1 24.7365 6.99981 0
138 1 23.683 16.0656 0
139 1 5.08635 29.7502 0
140 1 0.862421 1.3807 0
141 1 1.22274 15.6569 0
142 1 8.38024 5.80979 0
143 1 19.3723 7.37917 0
144 1 27.8609 25.3691 0
145 1 17.5112 15.7439 0
146 1 3.0728 16.7578 0
147 1 6.60999 3.62126 0
148 1 17.1936 29.2257 0
149 1 13.6934 1.8159 0
150 1 10.6599 17.5618 0
151 1 8.98362 14.8315 0
152 1 5.54498 17.1318 0
153 1 23.6231 2.95497 0
154 1 16.3604 1.30069 0
155 1 17.0061 3.63265 0
156 1 25.8772 9.81062 0
157 1 19.3954 13.7431 0
158 1 13.9921 10.5444 0
159 1 10.4837 12.3258 0
160 1 26.0947 26.8905 0
161 1 21.5127 17.4041 0
162 1 17.4085 21.9174 0
163 1 27.0291 20.9134 0
164 1 25.494 8.72575 0
165 1 12.0129 19.4069 0
166 1 6.48593 7.43585 0
167 1 23.9807 14.9207 0
168 1 26.2163 24.3261 0
169 1 5.97144 10.9106 0
170 1 28.6042 20.0345 0
171 1 28.0249 21.2861 0
172 1 1.62378 4.20714 0
173 1 4.0555 8.25256 0
174 1 13.8484 2.70919 0
175 1 20.2223 7.63677 0
176 1 19.7572 2.56119 0
177 1 22.7406 15.2961 0
178 1 2.51357 18.9419 0
179 1 22.9999 21.974 0
180 1 28.6077 17.3532 0
181 1 3.91412 21.9854 0
182 1 2.82376 10.965 0
183 1 27.3691 10.6935 0
184 1 23.9721 25.3815 0
185 1 12.4442 7.6249 0
186 1 17.1965 24.813 0
187 1 0.641192 14.0986 0
188 1 28.5835 26.5026 0
189 1 27.5857 22.2782 0
190 1 26.9178 23.7876 0
191 1 13.3156 3.895 0
192 1 10.861 7.56367 0
193 1 22.8919 20.0075 0
194 1 23.3647 1.90593 0
ITEM: TIMESTEP
1530
ITEM: NUMBER OF ATOMS
194
ITEM: BOX BOUNDS pp pp pp
0.0000000000000000e+00 3.0000000000000000e+01
0.0000000000000000e+00 3.0000000000000000e+01
-5.0000000000000000e-01 5.0000000000000000e-01
ITEM: ATOMS id type x y z
1 1 26.7908 4.22511 0
2 1 21.0919 13.4312 0
3 1 19.6263 26.0666 0
4 1 14.4807 16.9966 0
5 1 -0.0487207 0.113705 0
6 1 14.1467 29.1817 0
7 1 8.2261 22.8659 0
8 1 22.2499 20.7832 0
9 1 19.2328 24.7511 0
10 1 18.5833 3.35903 0
11 1 0.411854 12.8322 0
12 1 29.4318 8.61116 0
13 1 20.4942 25.059 0
14 1 26.2108 28.0599 0
15 1 15.4846 3.30135 0
16 1 7.75447 11.009 0
17 1 1.4468 24.9607 0
18 1 14.7225 10.6901 0
19 1 20.2987 28.614 0
20 1 9.11592 19.5462 0
21 1 14.4463 27.8462 0
22 1 21.9273 4.22556 0
23 1 5.07963 19.7451 0
24 1 24.1923 7.48828 0
25 1 28.3494 9.79259 0
26 1 14.4854 26.2739 0
27 1 1.23614 18.7271 0
28 1 18.092 2.56693 0
29 1 15.2791 5.09031 0
30 1 22.5737 24.3202 0
31 1 6.86851 25.7314 0
32 1 2.28081 28.5976 0
33 1 14.8383 22.8944 0
34 1 1.76787 13.7319 0
35 1 18.205 1.3199 0
36 1 0.254373 11.8624 0
37 1 22.7786 12.9663 0
38 1 22.5479 7.15227 0
39 1 29.7285 16.8095 0
40 1 12.3329 5.11355 0
41 1 29.9001 5.97231 0
42 1 28.4391 11.9924 0
43 1 2.45321 17.6319 0
44 1 -0.0157104 24.1999 0
45 1 24.3018 27.7967 0
46 1 0.734246 6.44356 0
47 1 13.1265 19.2448 0
48 1 12.244 0.092576 0
49 1 28.0025 0.654037 0
50 1 6.83548 24.7878 0
51 1 22.9727 16.9827 0
52 1 8.72998 25.9097 0
53 1 6.30313 16.1662 0
54 1 29.2435 23.0224 0
55 1 23.746 17.6875 0
56 1 5.41205 4.31875 0
57 1 21.8385 16.3619 0
58 1 4.26649 2.06063 0
59 1 16.6889 13.8384 0
60 1 22.4566 26.1826 0
61 1 27.4635 14.3315 0
62 1 23.5615 4.38308 0
63 1 19.795 0.071146 0
64 1 20.4955 19.2485 0
65 1 29.572 25.328 0
66 1 7.68201 17.6077 0
67 1 28.2331 24.2758 0
68 1 4.49459 13.4302 0
69 1 18.5008 29.478 0
70 1 12.2735 16.8774 0
71 1 26.7622 27.3867 0
72 1 17.5484 27.6001 0
73 1 8.46697 28.2763 0
74 1 17.1531 12.3739 0
75 1 5.20151 27.3284 0
76 1 17.9439 24.9811 0
77 1 11.4704 24.5971 0
78 1 7.49052 20.9985 0
79 1 14.3037 15.9974 0
80 1 6.19101 1.22163 0
81 1 2.64249 23.122 0
82 1 27.5372 26.4364 0
83 1 13.3864 12.8575 0
84 1 25.6669 4.01531 0
85 1 14.3527 9.0099 0
86 1 21.9653 22.696 0
87 1 13.9596 21.6916 0
88 1 23.7428 19.3079 0
89 1 1.23794 17.2429 0
90 1 15.2402 27.5019 0
91 1 6.99767 6.03243 0
92 1 25.2504 14.5922 0
93 1 23.7812 12.5293 0
94 1 4.8768 24.6562 0
95 1 23.4163 24.4474 0
96 1 3.6342 25.5443 0
97 1 23.8699 1.08353 0
98 1 11.6699 5.87862 0
99 1 15.1255 12.7578 0
100 1 20.0279 20.5765 0
101 1 5.80751 21.6044 0
102 1 10.0585 24.0948 0
103 1 22.5884 14.2676 0
104 1 12.8502 6.34591 0
105 1 15.7552 20.4891 0
106 1 7.7628 16.3199 0
107 1 13.3968 22.6222 0
108 1 7.40028 7.77229 0
109 1 13.5174 20.0637 0
110 1 1.35301 8.08778 0
111 1 10.5136 0.843558 0
112 1 0.968485 10.7322 0
113 1 9.57494 18.5818 0
114 1 29.8147 4.46095 0
115 1 23.6328 6.62387 0
116 1 8.90134 0.18783 0
117 1 19.3961 19.9181 0
118 1 12.3922 12.5806 0
119 1 0.329096 9.25222 0
120 1 17.3709 1.94039 0
121 1 25.3454 22.2789 0
122 1 18.8251 14.4363 0
123 1 21.2992 10.7745 0
124 1 4.87979 8.79028 0
125 1 25.7461 11.9893 0
126 1 3.30201 19.1977 0
127 1 16.2082 2.43058 0
128 1 25.5248 20.5572 0
129 1 15.1906 14.4736 0
130 1 3.7461 9.70053 0
131 1 19.5744 4.32523 0
132 1 0.894109 22.0969 0
133 1 13.7276 28.4222 0
134 1 10.5852 6.78418 0
135 1 4.25462 28.4905 0
136 1 21.3104 23.2412 0
137 1 24.8986 6.73509 0
138 1 23.5894 16.2051 0
139 1 4.89525 29.8865 0
140 1 0.844113 1.46302 0
141 1 1.5633 15.9558 0
142 1 8.18212 5.46282 0
143 1 19.4802 7.18062 0
144 1 27.7283 25.3713 0
145 1 17.7333 15.733 0
146 1 2.92748 16.899 0
147 1 6.64851 3.53714 0
148 1 17.4115 29.5768 0
149 1 14.0678 1.74887 0
150 1 11.0693 17.7 0
151 1 9.68732 14.9932 0
152 1 5.30227 16.7222 0
153 1 23.7676 2.74249 0
154 1 16.4627 1.22978 0
155 1 16.5132 3.93999 0
156 1 25.7156 10.0216 0
157 1 19.578 13.8868 0
158 1 13.5396 10.8586 0
159 1 10.5234 12.7565 0
160 1 25.8821 26.7705 0
161 1 21.7007 17.5003 0
162 1 17.1361 22.205 0
163 1 26.5449 20.3651 0
164 1 25.1929 8.77547 0
165 1 12.2421 19.1055 0
166 1 6.51765 7.63582 0
167 1 24.3269 14.6755 0
168 1 26.1009 24.2558 0
169 1 5.94718 11.0589 0
170 1 28.4584 19.9507 0
171 1 28.1818 21.5161 0
172 1 1.7539 4.4392 0
173 1 4.16511 7.98388 0
174 1 14.052 2.83075 0
175 1 20.5378 7.45876 0
176 1 19.4644 2.76106 0
177 1 22.805 15.6332 0
178 1 2.50426 18.6849 0
179 1 22.7586 22.2116 0
180 1 28.6335 17.4809 0
181 1 3.39272 22.3085 0
182 1 2.58745 10.7365 0
183 1 27.6752 10.722 0
184 1 24.2508 25.2603 0
185 1 12.6629 7.47858 0
186 1 16.8669 24.9615 0
187 1 0.490345 13.8575 0
188 1 28.6507 26.3743 0
189 1 27.6786 22.6244 0
190 1 27.3062 23.6063 0
191 1 13.209 3.91691 0
192 1 11.1014 7.7145 0
193 1 22.8941 20.0754 0
194 1 22.9504 1.94006 0
ITEM: TIMESTEP
1545
ITEM: NUMBER OF ATOMS
194
ITEM: BOX BOUNDS pp pp pp
0.0000000000000000e+00 3.0000000000000000e+01
0.0000000000000000e+00 3.0000000000000000e+01
-5.0000000000000000e-01 5.0000000000000000e-01
ITEM: ATOMS id type x y z
1 1 26.7549 4.24007 0
2 1 21.1509 12.9509 0
3 1 19.5592 25.6765 0
4 1 14.7935 16.946 0
5 1 29.6743 0.0956075 0
6 1 14.1948 29.2436 0
7 1 8.27256 23.3396 0
8 1 22.2618 20.9276 0
9 1 19.2034 24.3722 0
10 1 18.3445 3.33561 0
11 1 0.425564 12.9593 0
12 1 28.842 8.78582 0
13 1 20.4705 24.7603 0
14 1 26.0619 28.1471 0
15 1 15.4921 3.05861 0
16 1 7.89778 11.2217 0
17 1 1.35941 24.5372 0
18 1 14.6658 11.2734 0
19 1 20.4491 28.5062 0
20 1 9.59398 19.3317 0
21 1 14.5749 27.6064 0
22 1 22.2724 4.0732 0
23 1 4.97812 20.1238 0
24 1 23.9943 7.24048 0
25 1 28.7999 10.0163 0
26 1 14.8817 26.6046 0
27 1 0.887889 18.6361 0
28 1 18.2195 2.31998 0
29 1 15.3022 4.8688 0
30 1 22.649 24.447 0
31 1 6.84762 26.0238 0
32 1 2.78621 28.6952 0
33 1 14.6893 23.1354 0
34 1 1.84388 13.7248 0
35 1 18.5937 1.42735 0
36 1 0.217088 12.1031 0
37 1 22.3162 13.3523 0
38 1 22.492 7.05059 0
39 1 29.6776 16.3256 0
40 1 12.0991 5.04761 0
41 1 29.6178 5.81007 0
42 1 27.9676 12.2132 0
43 1 2.32681 17.6298 0
44 1 29.7434 23.8724 0
45 1 24.2985 28.0552 0
46 1 0.759723 6.27615 0
47 1 13.0081 19.1163 0
48 1 12.0853 -0.0192623 0
49 1 27.947 0.768644 0
50 1 6.85789 24.8143 0
51 1 23.0383 16.8364 0
52 1 8.19026 25.9799 0
53 1 5.94645 16.6532 0
54 1 29.6405 22.5898 0
55 1 23.7881 17.6857 0
56 1 5.38775 4.05609 0
57 1 22.1754 16.7653 0
58 1 4.15871 2.01538 0
59 1 16.8837 13.7488 0
60 1 22.726 26.1598 0
61 1 27.3761 13.9053 0
62 1 23.2546 4.59296 0
63 1 19.607 -0.0224314 0
64 1 20.6447 19.2619 0
65 1 29.6284 24.9094 0
66 1 7.89245 17.7449 0
67 1 28.6404 23.9596 0
68 1 4.10296 13.337 0
69 1 18.3701 29.5703 0
70 1 12.4629 16.8796 0
71 1 26.7821 27.3013 0
72 1 17.4301 27.5801 0
73 1 8.30222 28.2303 0
74 1 16.9451 12.0339 0
75 1 5.00213 27.3043 0
76 1 17.3462 24.9301 0
77 1 11.3248 24.5312 0
78 1 7.67236 21.1612 0
79 1 14.3834 16.1036 0
80 1 6.36459 1.53418 0
81 1 2.52687 23.2952 0
82 1 27.6772 26.2867 0
83 1 13.5499 12.3795 0
84 1 25.3656 3.73367 0
85 1 14.326 8.84059 0
86 1 21.8849 22.8209 0
87 1 13.9377 21.176 0
88 1 23.3739 19.1421 0
89 1 1.28026 17.0752 0
90 1 15.924 27.6082 0
91 1 7.31302 6.31423 0
92 1 25.517 14.4409 0
93 1 23.9372 12.4516 0
94 1 5.1594 24.8544 0
95 1 23.6629 25.1435 0
96 1 3.3671 25.7534 0
97 1 23.873 1.16636 0
98 1 11.7625 5.94255 0
99 1 14.8357 13.2211 0
100 1 20.046 20.3398 0
101 1 6.22321 21.3472 0
102 1 9.64485 24.376 0
103 1 22.5758 14.1978 0
104 1 13.256 6.58508 0
105 1 15.7591 20.803 0
106 1 7.84922 16.3898 0
107 1 13.6392 22.8589 0
108 1 7.38484 7.57593 0
109 1 13.6177 19.8882 0
110 1 1.192 8.09883 0
111 1 10.5549 0.853076 0
112 1 0.968645 10.9564 0
113 1 9.86879 18.4163 0
114 1 0.256692 4.53176 0
115 1 23.7652 6.33171 0
116 1 8.9477 -0.0104502 0
117 1 18.9472 19.3359 0
118 1 12.2083 12.5925 0
119 1 0.234658 9.58215 0
120 1 17.4174 1.81742 0
121 1 25.1438 22.5376 0
122 1 18.8778 14.2418 0
123 1 21.5324 10.6632 0
124 1 4.19132 8.72178 0
125 1 25.379 12.1812 0
126 1 3.24283 19.1094 0
127 1 16.5605 2.49136 0
128 1 25.3095 20.8264 0
129 1 15.5507 14.4264 0
130 1 4.26214 9.87778 0
131 1 19.5559 4.50482 0
132 1 0.827393 22.3281 0
133 1 13.3922 28.3216 0
134 1 10.6867 6.78308 0
135 1 4.40398 28.34 0
136 1 21.0171 23.4251 0
137 1 25.0983 6.40698 0
138 1 23.7362 16.2557 0
139 1 4.70367 30.0215 0
140 1 0.824864 1.54386 0
141 1 1.90473 16.259 0
142 1 7.98016 5.11797 0
143 1 19.5471 6.97034 0
144 1 27.5869 25.3956 0
145 1 17.9561 15.7209 0
146 1 2.9232 16.8182 0
147 1 6.68454 3.45458 0
148 1 17.559 29.949 0
149 1 14.4393 1.64368 0
150 1 11.4812 17.8379 0
151 1 10.3909 15.1549 0
152 1 5.01916 16.3146 0
153 1 23.9118 2.53172 0
154 1 16.567 1.16494 0
155 1 16.0157 4.24298 0
156 1 25.5528 10.2292 0
157 1 19.8804 13.9556 0
158 1 13.0771 11.1782 0
159 1 10.5636 13.1873 0
160 1 25.6473 26.6411 0
161 1 21.8874 17.6095 0
162 1 16.8634 22.4924 0
163 1 26.0738 19.8136 0
164 1 24.8924 8.82751 0
165 1 12.061 18.692 0
166 1 6.3086 7.81506 0
167 1 24.5045 14.4437 0
168 1 25.9838 24.1873 0
169 1 5.92369 11.2072 0
170 1 28.3118 19.8688 0
171 1 28.3369 21.7484 0
172 1 1.88329 4.67149 0
173 1 4.26229 7.68425 0
174 1 14.2593 2.99475 0
175 1 20.8948 7.29241 0
176 1 19.1966 2.94648 0
177 1 22.7781 15.9043 0
178 1 2.41323 18.5314 0
179 1 22.7046 22.3332 0
180 1 28.6631 17.6065 0
181 1 2.98163 22.4772 0
182 1 2.35082 10.5066 0
183 1 27.9831 10.751 0
184 1 24.5817 25.1566 0
185 1 12.866 7.36796 0
186 1 16.4715 25.1169 0
187 1 0.344253 13.8308 0
188 1 28.7197 26.2399 0
189 1 27.857 22.7082 0
190 1 27.6159 23.6843 0
191 1 13.1034 3.93798 0
192 1 11.364 7.90324 0
193 1 22.9615 20.0746 0
194 1 22.5389 1.97103 0
ITEM: TIMESTEP
1560
ITEM: NUMBER OF ATOMS
194
ITEM: BOX BOUNDS pp pp pp
0.0000000000000000e+00 3.0000000000000000e+01
0.0000000000000000e+00 3.0000000000000000e+01
-5.0000000000000000e-01 5.0000000000000000e-01
ITEM: ATOMS id type x y z
1 1 26.7162 4.25409 0
2 1 21.213 12.4732 0
3 1 19.4945 25.2784 0
4 1 15.1672 17.0483 0
5 1 29.3972 0.0783543 0
6 1 14.2516 29.3181 0
7 1 8.31978 23.8142 0
8 1 22.2668 21.0835 0
9 1 19.1795 23.999 0
10 1 18.0361 3.47122 0
11 1 0.550614 12.9979 0
12 1 28.2539 8.96647 0
13 1 20.4379 24.4677 0
14 1 25.8622 28.2912 0
15 1 15.5011 2.81717 0
16 1 8.04062 11.4343 0
17 1 1.27131 24.1122 0
18 1 14.6103 11.857 0
19 1 20.5988 28.3996 0
20 1 10.0465 19.2035 0
21 1 14.6307 27.4749 0
22 1 22.6005 3.90056 0
23 1 4.87692 20.5029 0
24 1 23.8381 7.11852 0
25 1 29.2543 10.2333 0
26 1 15.3436 26.8341 0
27 1 0.543305 18.5426 0
28 1 18.3429 2.13459 0
29 1 14.9488 4.96364 0
30 1 22.7016 24.568 0
31 1 6.83046 26.5561 0
32 1 3.29325 28.7924 0
33 1 14.62 23.4032 0
34 1 1.91584 13.717 0
35 1 19.0415 1.42827 0
36 1 0.0919256 11.9151 0
37 1 21.7737 13.5345 0
38 1 22.4393 6.94799 0
39 1 29.6265 15.8432 0
40 1 11.9529 4.81603 0
41 1 29.1048 5.53075 0
42 1 27.4959 12.4324 0
43 1 2.13353 17.3633 0
44 1 29.7614 23.4815 0
45 1 24.2965 28.3132 0
46 1 1.01734 6.22266 0
47 1 12.9411 18.8553 0
48 1 11.9262 29.8691 0
49 1 27.8922 0.882989 0
50 1 6.87623 24.6023 0
51 1 23.4652 16.9775 0
52 1 7.64971 26.0484 0
53 1 5.66938 17.1473 0
54 1 29.9972 22.154 0
55 1 23.8666 17.7421 0
56 1 5.36645 3.7919 0
57 1 21.9479 16.8506 0
58 1 4.05126 1.96987 0
59 1 17.0763 13.6594 0
60 1 22.9865 26.1401 0
61 1 27.2886 13.4779 0
62 1 22.9655 4.82331 0
63 1 19.4155 29.8826 0
64 1 20.7907 19.2793 0
65 1 29.6803 24.5119 0
66 1 8.10299 17.8778 0
67 1 28.7989 23.6813 0
68 1 3.71116 13.2439 0
69 1 18.4551 29.5808 0
70 1 12.6495 16.8853 0
71 1 26.8512 27.1509 0
72 1 17.3421 27.5556 0
73 1 8.13766 28.1847 0
74 1 16.7367 11.6951 0
75 1 4.80322 27.2769 0
76 1 16.9652 24.8404 0
77 1 11.178 24.4652 0
78 1 7.85121 21.3242 0
79 1 14.4018 16.0567 0
80 1 6.53792 1.84723 0
81 1 2.21498 23.7625 0
82 1 27.8054 26.3597 0
83 1 13.7079 11.9004 0
84 1 25.0664 3.45257 0
85 1 14.299 8.67114 0
86 1 21.7215 22.9881 0
87 1 13.9195 20.691 0
88 1 23.0151 18.9508 0
89 1 1.29531 16.9297 0
90 1 16.5836 27.7141 0
91 1 7.63334 6.5729 0
92 1 25.8741 14.2858 0
93 1 24.0925 12.3745 0
94 1 5.44308 25.0529 0
95 1 23.7749 25.8102 0
96 1 3.10046 25.9622 0
97 1 23.8744 1.25425 0
98 1 11.7685 6.17526 0
99 1 14.5464 13.6857 0
100 1 20.066 20.0989 0
101 1 6.64134 21.0891 0
102 1 9.23119 24.6566 0
103 1 22.6408 14.331 0
104 1 13.7653 6.60331 0
105 1 15.7625 21.1172 0
106 1 7.93508 16.4641 0
107 1 13.8024 23.0666 0
108 1 7.4442 7.39927 0
109 1 13.8549 19.881 0
110 1 1.03019 8.11012 0
111 1 10.5964 0.861753 0
112 1 0.967942 11.1815 0
113 1 10.1892 18.1639 0
114 1 0.69952 4.60608 0
115 1 23.8578 5.91301 0
116 1 8.99451 29.791 0
117 1 18.5004 18.7536 0
118 1 12.0273 12.6026 0
119 1 0.138655 9.91251 0
120 1 17.3987 1.64046 0
121 1 24.9425 22.7959 0
122 1 18.8719 14.0752 0
123 1 21.7656 10.5521 0
124 1 3.51274 8.69683 0
125 1 25.0115 12.3732 0
126 1 3.22946 19.0497 0
127 1 16.9053 2.55667 0
128 1 25.0929 21.0957 0
129 1 15.9113 14.3756 0
130 1 4.77784 10.0522 0
131 1 19.536 4.68179 0
132 1 0.798216 22.5688 0
133 1 13.049 28.2069 0
134 1 10.7939 6.78284 0
135 1 4.55162 28.194 0
136 1 20.6724 23.6456 0
137 1 25.2909 6.08059 0
138 1 24.1826 16.1429 0
139 1 4.51176 0.155749 0
140 1 0.805162 1.62412 0
141 1 2.1973 16.5055 0
142 1 7.77589 4.77601 0
143 1 19.6176 6.76085 0
144 1 27.4362 25.2019 0
145 1 18.1794 15.7077 0
146 1 3.03412 16.7016 0
147 1 6.71761 3.37311 0
148 1 17.4931 0.407991 0
149 1 14.8114 1.54312 0
150 1 11.6558 17.4719 0
151 1 11.0946 15.3162 0
152 1 4.65703 15.9002 0
153 1 24.0535 2.31675 0
154 1 16.6528 1.08784 0
155 1 15.8924 4.22351 0
156 1 25.3891 10.4352 0
157 1 20.2419 13.9963 0
158 1 12.617 11.5018 0
159 1 10.6048 13.6182 0
160 1 25.4162 26.5151 0
161 1 22.0152 17.9534 0
162 1 16.5904 22.7796 0
163 1 25.604 19.2631 0
164 1 24.5924 8.8808 0
165 1 11.9275 18.7147 0
166 1 6.02136 7.99462 0
167 1 24.591 14.2154 0
168 1 25.8669 24.119 0
169 1 5.90043 11.3552 0
170 1 28.165 19.7874 0
171 1 28.5662 21.8583 0
172 1 2.01062 4.90404 0
173 1 4.35018 7.34435 0
174 1 14.4695 3.15739 0
175 1 21.2502 7.12488 0
176 1 19.0328 3.08033 0
177 1 22.6767 16.0776 0
178 1 2.29998 18.6861 0
179 1 22.7859 22.3703 0
180 1 28.694 17.731 0
181 1 2.76503 22.3527 0
182 1 2.11176 10.2774 0
183 1 28.289 10.7842 0
184 1 25.0794 25.0836 0
185 1 12.9612 7.47713 0
186 1 15.86 25.3111 0
187 1 0.181106 14.3183 0
188 1 28.8079 26.1 0
189 1 28.0564 22.6148 0
190 1 27.8266 24.0652 0
191 1 12.998 3.95947 0
192 1 11.6266 8.08731 0
193 1 23.0266 20.0884 0
194 1 22.1319 2.0023 0
ITEM: TIMESTEP
1575
ITEM: NUMBER OF ATOMS
194
ITEM: BOX BOUNDS pp pp pp
0.0000000000000000e+00 3.0000000000000000e+01
0.0000000000000000e+00 3.0000000000000000e+01
-5.0000000000000000e-01 5.0000000000000000e-01
ITEM: ATOMS id type x y z
1 1 26.6766 4.2679 0
2 1 21.2768 11.9994 0
3 1 19.4253 24.8755 0
4 1 15.5411 17.152 0
5 1 29.1192 0.0619147 0
6 1 14.3072 29.3909 0
7 1 8.34919 24.2689 0
8 1 22.2759 21.2394 0
9 1 19.1629 23.6316 0
10 1 17.7025 3.61142 0
11 1 0.682441 13.0505 0
12 1 27.6672 9.14985 0
13 1 20.2929 24.6191 0
14 1 25.6619 28.4326 0
15 1 15.5171 2.57304 0
16 1 8.18321 11.647 0
17 1 1.06227 23.6932 0
18 1 14.6811 12.4476 0
19 1 20.748 28.2935 0
20 1 10.4937 19.1049 0
21 1 14.5754 27.488 0
22 1 22.9 3.68176 0
23 1 4.77616 20.882 0
24 1 23.6804 6.99975 0
25 1 29.3954 10.5741 0
26 1 15.919 26.9205 0
27 1 0.20008 18.4478 0
28 1 18.4223 2.0508 0
29 1 14.4088 5.21345 0
30 1 22.7552 24.6912 0
31 1 6.75837 27.1315 0
32 1 3.80435 28.8884 0
33 1 14.8038 23.7683 0
34 1 1.98579 13.7081 0
35 1 19.5498 1.3445 0
36 1 -0.0394949 11.7091 0
37 1 21.2326 13.6602 0
38 1 22.4185 6.84102 0
39 1 29.56 15.3842 0
40 1 11.8101 4.58352 0
41 1 28.5932 5.25108 0
42 1 27.038 12.3271 0
43 1 1.99282 17.4628 0
44 1 30.1344 23.0123 0
45 1 24.2967 28.571 0
46 1 1.27503 6.16672 0
47 1 12.9031 18.5964 0
48 1 11.7663 29.7579 0
49 1 27.8384 0.99676 0
50 1 6.89437 24.3926 0
51 1 23.7194 16.8631 0
52 1 7.16341 26.0716 0
53 1 5.39153 17.6402 0
54 1 0.193205 21.6623 0
55 1 24.0977 18.0735 0
56 1 5.34854 3.52636 0
57 1 21.7225 16.8752 0
58 1 3.94414 1.92385 0
59 1 17.2661 13.5721 0
60 1 22.9493 26.2215 0
61 1 27.1858 13.3753 0
62 1 22.7076 5.10207 0
63 1 19.3303 29.8217 0
64 1 20.9425 19.2918 0
65 1 29.728 24.1361 0
66 1 8.31347 18.0074 0
67 1 28.6036 23.4619 0
68 1 3.31857 13.151 0
69 1 18.439 29.5565 0
70 1 12.8352 16.8929 0
71 1 26.9206 26.9979 0
72 1 17.9317 27.3867 0
73 1 7.97315 28.1393 0
74 1 16.5282 11.3567 0
75 1 4.62626 27.1411 0
76 1 16.5948 24.7477 0
77 1 11.0307 24.3992 0
78 1 8.02539 21.4864 0
79 1 14.4196 16.0084 0
80 1 6.71132 2.16296 0
81 1 2.02083 24.2241 0
82 1 27.9083 26.4501 0
83 1 13.7363 11.4152 0
84 1 24.7662 3.16978 0
85 1 14.2712 8.50081 0
86 1 21.5544 23.158 0
87 1 13.9379 20.6864 0
88 1 22.7127 18.7972 0
89 1 1.17819 16.7608 0
90 1 16.5624 27.9622 0
91 1 8.03399 6.50822 0
92 1 26.2294 14.1292 0
93 1 23.9157 12.2681 0
94 1 5.72937 25.2511 0
95 1 24.1838 26.3725 0
96 1 2.83403 26.171 0
97 1 23.8635 1.30256 0
98 1 11.7801 6.40574 0
99 1 14.2588 14.1505 0
100 1 20.0807 19.8621 0
101 1 7.06352 20.8317 0
102 1 8.83407 24.958 0
103 1 22.7279 14.505 0
104 1 14.2861 6.60187 0
105 1 15.7654 21.4319 0
106 1 8.02122 16.5419 0
107 1 13.7129 23.177 0
108 1 7.4208 7.54599 0
109 1 14.0536 19.3911 0
110 1 0.86828 8.12131 0
111 1 10.6385 0.869285 0
112 1 0.968574 11.4036 0
113 1 10.5175 17.881 0
114 1 1.14578 4.68344 0
115 1 23.949 5.48891 0
116 1 9.04141 29.5921 0
117 1 18.0541 18.1717 0
118 1 11.8422 12.6234 0
119 1 0.372653 10.1142 0
120 1 17.4788 1.60162 0
121 1 24.7423 23.0545 0
122 1 18.8684 13.909 0
123 1 21.9987 10.4414 0
124 1 2.83549 8.67142 0
125 1 24.9764 12.5957 0
126 1 3.26151 19.0098 0
127 1 17.2412 2.63753 0
128 1 24.8764 21.3653 0
129 1 16.2734 14.3214 0
130 1 5.29367 10.2263 0
131 1 19.5153 4.8575 0
132 1 0.951042 22.8593 0
133 1 12.708 28.0932 0
134 1 10.8981 6.78644 0
135 1 4.67385 28.1584 0
136 1 20.4413 23.4186 0
137 1 25.4795 5.75434 0
138 1 24.643 16.0141 0
139 1 4.31919 0.289445 0
140 1 0.785248 1.70414 0
141 1 2.23122 16.3258 0
142 1 7.57074 4.4342 0
143 1 19.6895 6.55133 0
144 1 27.277 25.0078 0
145 1 18.403 15.6936 0
146 1 3.4835 16.6706 0
147 1 6.74772 3.29105 0
148 1 17.493 0.754664 0
149 1 15.1853 1.44677 0
150 1 11.6939 16.8014 0
151 1 11.7982 15.4773 0
152 1 4.29493 15.4874 0
153 1 24.2078 2.14378 0
154 1 16.5608 0.96487 0
155 1 15.954 4.04469 0
156 1 25.2248 10.6409 0
157 1 20.5758 14.0496 0
158 1 12.164 11.8158 0
159 1 10.6469 14.0494 0
160 1 25.1857 26.3877 0
161 1 22.0794 18.3236 0
162 1 16.3168 23.0667 0
163 1 25.1336 18.7132 0
164 1 24.2926 8.93453 0
165 1 11.9023 19.0406 0
166 1 5.73592 8.17285 0
167 1 24.6802 13.9866 0
168 1 25.7492 24.0482 0
169 1 5.87666 11.5022 0
170 1 28.0183 19.7061 0
171 1 28.9564 21.7167 0
172 1 2.13308 5.13695 0
173 1 4.43789 7.00662 0
174 1 14.6758 3.32216 0
175 1 21.5769 6.96096 0
176 1 18.8904 3.20051 0
177 1 22.5875 16.2403 0
178 1 2.14001 18.8196 0
179 1 22.8659 22.4038 0
180 1 28.7254 17.8556 0
181 1 2.54748 22.2296 0
182 1 1.87011 10.0495 0
183 1 28.5797 10.824 0
184 1 25.5789 25.0154 0
185 1 13.042 7.60664 0
186 1 15.2376 25.5095 0
187 1 0.0343472 14.7852 0
188 1 28.9175 25.9532 0
189 1 28.0936 22.7703 0
190 1 28.0313 24.4438 0
191 1 12.8905 3.98311 0
192 1 11.8907 8.2676 0
193 1 23.0872 20.1094 0
194 1 21.7263 2.03386 0
ITEM: TIMESTEP
1590
ITEM: NUMBER OF ATOMS
194
ITEM: BOX BOUNDS pp pp pp
0.0000000000000000e+00 3.0000000000000000e+01
0.0000000000000000e+00 3.0000000000000000e+01
-5.0000000000000000e-01 5.0000000000000000e-01
ITEM: ATOMS id type x y z
1 1 26.6367 4.28226 0
2 1 21.3412 11.5267 0
3 1 19.1865 24.4998 0
4 1 15.9136 17.2543 0
5 1 28.8398 0.0466983 0
6 1 14.3626 29.463 0
7 1 8.17491 24.434 0
8 1 22.2894 21.3966 0
9 1 19.1539 23.2702 0
10 1 17.3748 3.76427 0
11 1 0.815699 13.1017 0
12 1 27.0808 9.33391 0
13 1 20.2903 24.847 0
14 1 25.458 28.5735 0
15 1 15.5358 2.33279 0
16 1 8.32564 11.8596 0
17 1 0.77262 23.8133 0
18 1 14.7697 13.0427 0
19 1 20.897 28.1876 0
20 1 10.9429 19.0022 0
21 1 14.5214 27.5011 0
22 1 23.1998 3.46421 0
23 1 4.67551 21.2612 0
24 1 23.5348 6.88108 0
25 1 29.6608 10.7933 0
26 1 16.4952 27.0094 0
27 1 29.8558 18.3517 0
28 1 18.5345 1.98286 0
29 1 13.8693 5.46512 0
30 1 22.8088 24.8162 0
31 1 6.67196 27.725 0
32 1 4.31011 28.995 0
33 1 14.9974 24.1369 0
34 1 2.05559 13.6966 0
35 1 20.0549 1.26015 0
36 1 29.855 11.6129 0
37 1 21.3527 13.3871 0
38 1 22.7158 6.68306 0
39 1 29.0187 15.5147 0
40 1 11.6716 4.34962 0
41 1 28.0814 4.97124 0
42 1 26.5834 11.8912 0
43 1 1.87493 17.6484 0
44 1 0.151677 22.6144 0
45 1 24.301 28.828 0
46 1 1.53466 6.10572 0
47 1 12.8809 18.3366 0
48 1 11.6054 29.6476 0
49 1 27.7861 1.10941 0
50 1 6.91372 24.1857 0
51 1 23.9668 16.7331 0
52 1 6.69235 26.0763 0
53 1 5.11329 18.1328 0
54 1 0.381112 21.174 0
55 1 23.9182 18.3006 0
56 1 5.33441 3.25973 0
57 1 21.491 16.9092 0
58 1 3.8375 1.87668 0
59 1 17.4535 13.4881 0
60 1 22.8591 26.3124 0
61 1 27.1726 13.5323 0
62 1 22.4544 5.3822 0
63 1 19.4209 29.8161 0
64 1 21.1158 19.29 0
65 1 29.7743 23.7542 0
66 1 8.52374 18.1344 0
67 1 28.6362 23.5303 0
68 1 2.92311 13.0594 0
69 1 18.2454 29.4817 0
70 1 13.0197 16.8998 0
71 1 26.9886 26.8445 0
72 1 18.56 27.2079 0
73 1 7.8072 28.093 0
74 1 16.3195 11.0186 0
75 1 4.45405 26.9409 0
76 1 16.2215 24.6546 0
77 1 10.8831 24.3333 0
78 1 8.19619 21.6462 0
79 1 14.4381 15.9611 0
80 1 6.88863 2.4168 0
81 1 1.91024 24.6927 0
82 1 28.0088 26.5386 0
83 1 13.7446 10.9267 0
84 1 24.4771 2.93715 0
85 1 14.2413 8.32844 0
86 1 21.3871 23.3278 0
87 1 13.9579 20.7236 0
88 1 22.9367 19.0504 0
89 1 1.02654 16.575 0
90 1 16.4995 28.2165 0
91 1 8.44906 6.40065 0
92 1 26.4889 14.0429 0
93 1 23.5816 12.1401 0
94 1 6.01884 25.4483 0
95 1 24.3952 26.9986 0
96 1 2.56779 26.3798 0
97 1 23.7912 1.19501 0
98 1 11.8836 6.60116 0
99 1 13.972 14.6152 0
100 1 20.077 19.6374 0
101 1 7.4889 20.5766 0
102 1 8.63694 25.5496 0
103 1 22.8139 14.6791 0
104 1 14.805 6.5991 0
105 1 15.7683 21.7474 0
106 1 8.10786 16.6223 0
107 1 13.6158 23.2842 0
108 1 7.38209 7.73564 0
109 1 14.2478 18.8573 0
110 1 0.706925 8.13276 0
111 1 10.6817 0.87527 0
112 1 0.978946 11.6185 0
113 1 10.8476 17.6012 0
114 1 1.57322 4.75077 0
115 1 24.0373 5.0661 0
116 1 9.0881 29.3928 0
117 1 17.6077 17.5898 0
118 1 11.5499 12.9291 0
119 1 0.795448 10.2431 0
120 1 17.5566 1.89907 0
121 1 24.5444 23.3145 0
122 1 18.8647 13.7434 0
123 1 22.2312 10.3318 0
124 1 2.15711 8.64705 0
125 1 25.0993 12.8421 0
126 1 3.29614 18.9706 0
127 1 17.5678 2.7893 0
128 1 24.6595 21.636 0
129 1 16.6389 14.2642 0
130 1 5.81084 10.4036 0
131 1 19.4943 5.0336 0
132 1 1.45431 22.5321 0
133 1 12.3675 27.9802 0
134 1 10.9119 6.82622 0
135 1 4.79755 28.1789 0
136 1 20.233 23.0809 0
137 1 25.6663 5.42734 0
138 1 25.0994 15.8884 0
139 1 4.12562 0.421833 0
140 1 0.765233 1.78406 0
141 1 2.26966 16.0793 0
142 1 7.36365 4.08995 0
143 1 19.7618 6.34054 0
144 1 27.0525 24.8664 0
145 1 18.6267 15.6788 0
146 1 3.94189 16.64 0
147 1 6.77196 3.27452 0
148 1 17.6358 0.640401 0
149 1 15.5593 1.34966 0
150 1 11.7217 16.1456 0
151 1 12.5126 15.6266 0
152 1 3.93123 15.0773 0
153 1 24.4114 2.07732 0
154 1 16.3092 0.867521 0
155 1 16.0129 3.86218 0
156 1 25.06 10.8469 0
157 1 20.2481 14.5003 0
158 1 11.8201 11.845 0
159 1 10.69 14.4807 0
160 1 25.2073 26.182 0
161 1 21.6178 18.2886 0
162 1 16.0416 23.3549 0
163 1 25.0764 18.2791 0
164 1 23.993 8.98838 0
165 1 11.8617 19.3673 0
166 1 5.45057 8.3504 0
167 1 24.7716 13.7557 0
168 1 25.6351 23.9298 0
169 1 5.8517 11.6459 0
170 1 27.8718 19.6245 0
171 1 29.3517 21.5763 0
172 1 2.27227 5.38536 0
173 1 4.52617 6.66969 0
174 1 14.8836 3.48834 0
175 1 21.574 6.84351 0
176 1 18.741 3.31704 0
177 1 22.5104 16.3989 0
178 1 1.97637 18.9473 0
179 1 22.9419 22.4343 0
180 1 28.7587 17.9814 0
181 1 2.32815 22.1077 0
182 1 1.62757 9.82092 0
183 1 28.5237 10.9577 0
184 1 26.0733 24.9963 0
185 1 13.1215 7.73777 0
186 1 14.6176 25.7079 0
187 1 0.363401 14.6618 0
188 1 29.0277 25.8043 0
189 1 27.9147 22.6386 0
190 1 28.2973 24.7746 0
191 1 12.7796 4.00932 0
192 1 12.1584 8.44414 0
193 1 23.1444 20.1288 0
194 1 21.3208 2.06556 0
ITEM: TIMESTEP
1605
ITEM: NUMBER OF ATOMS
194
ITEM: BOX BOUNDS pp pp pp
0.0000000000000000e+00 3.0000000000000000e+01
0.0000000000000000e+00 3.0000000000000000e+01
-5.0000000000000000e-01 5.0000000000000000e-01
ITEM: ATOMS id type x y z
1 1 26.5968 4.29959 0
2 1 21.4075 11.0526 0
3 1 18.9031 24.1202 0
4 1 16.2862 17.3567 0
5 1 28.5587 0.0333706 0
6 1 14.4182 29.5349 0
7 1 7.97412 24.5626 0
8 1 22.307 21.5562 0
9 1 19.1276 22.918 0
10 1 17.0403 3.9599 0
11 1 0.952197 13.1527 0
12 1 26.4946 9.51825 0
13 1 20.3327 25.0703 0
14 1 25.252 28.7135 0
15 1 15.5422 2.23412 0
16 1 8.468 12.0722 0
17 1 0.540243 24.0573 0
18 1 14.8579 13.6384 0
19 1 21.0459 28.0819 0
20 1 11.3268 18.8531 0
21 1 14.468 27.5138 0
22 1 23.4816 3.25416 0
23 1 4.57479 21.6403 0
24 1 23.7761 6.86311 0
25 1 29.8542 10.493 0
26 1 17.071 27.1028 0
27 1 29.5686 18.2701 0
28 1 18.706 1.92912 0
29 1 13.3307 5.71852 0
30 1 22.8624 24.9434 0
31 1 6.58669 28.3177 0
32 1 4.77193 29.1819 0
33 1 15.1132 24.4881 0
34 1 2.08812 13.7207 0
35 1 20.5591 1.17524 0
36 1 29.897 12.0195 0
37 1 21.5082 13.0898 0
38 1 22.672 6.41915 0
39 1 28.4497 15.6751 0
40 1 11.5364 4.11491 0
41 1 27.5675 4.69054 0
42 1 26.1277 11.4567 0
43 1 1.75585 17.8344 0
44 1 0.144116 22.2277 0
45 1 24.3069 29.084 0
46 1 1.73116 6.08924 0
47 1 12.8589 18.0766 0
48 1 11.4434 29.5384 0
49 1 27.7356 1.22018 0
50 1 6.93661 23.9823 0
51 1 24.2148 16.6024 0
52 1 6.50142 26.422 0
53 1 4.83427 18.6252 0
54 1 0.570889 20.6888 0
55 1 23.281 18.3895 0
56 1 5.32433 2.99262 0
57 1 21.261 16.947 0
58 1 3.73168 1.82693 0
59 1 17.6454 13.4032 0
60 1 22.7704 26.4011 0
61 1 27.5388 13.401 0
62 1 22.2008 5.66144 0
63 1 19.5143 29.8131 0
64 1 21.2955 19.2909 0
65 1 29.7568 23.3487 0
66 1 8.73359 18.2595 0
67 1 28.7229 23.6727 0
68 1 2.56045 12.931 0
69 1 18.047 29.4101 0
70 1 13.201 16.9045 0
71 1 27.0455 26.6929 0
72 1 19.1878 27.0293 0
73 1 7.64001 28.0459 0
74 1 16.1108 10.6805 0
75 1 4.28279 26.744 0
76 1 15.9262 24.5779 0
77 1 10.7356 24.2674 0
78 1 8.36435 21.8022 0
79 1 14.4537 15.9116 0
80 1 7.10185 2.37064 0
81 1 1.79705 25.1597 0
82 1 28.1237 26.6199 0
83 1 13.7528 10.4385 0
84 1 24.241 2.98268 0
85 1 14.2079 8.15358 0
86 1 21.2166 23.4967 0
87 1 13.9782 20.7601 0
88 1 23.1607 19.2999 0
89 1 0.880917 16.3903 0
90 1 16.4368 28.4662 0
91 1 8.86326 6.29431 0
92 1 26.3666 14.2427 0
93 1 23.2495 12.0126 0
94 1 6.02984 25.304 0
95 1 24.4441 27.6899 0
96 1 2.30167 26.5878 0
97 1 23.7059 1.06451 0
98 1 12.0555 6.77822 0
99 1 13.6929 15.074 0
100 1 20.0678 19.4153 0
101 1 7.91694 20.3253 0
102 1 8.46081 26.1768 0
103 1 22.8995 14.8538 0
104 1 15.322 6.59492 0
105 1 15.7711 22.0643 0
106 1 8.19502 16.7046 0
107 1 13.5203 23.3923 0
108 1 7.34393 7.92416 0
109 1 14.439 18.323 0
110 1 0.548192 8.14563 0
111 1 10.7261 0.879301 0
112 1 0.98961 11.8307 0
113 1 11.179 17.3246 0
114 1 1.92631 4.75581 0
115 1 24.1244 4.64354 0
116 1 9.13448 29.1931 0
117 1 17.1609 17.0073 0
118 1 11.2333 13.307 0
119 1 1.06303 10.4942 0
120 1 17.5789 1.94369 0
121 1 24.3503 23.5754 0
122 1 18.859 13.5785 0
123 1 22.4624 10.2243 0
124 1 1.476 8.61352 0
125 1 25.3157 12.8837 0
126 1 3.3264 18.9307 0
127 1 17.8652 3.13206 0
128 1 24.4415 21.9082 0
129 1 17.0033 14.2084 0
130 1 6.32811 10.5857 0
131 1 19.4733 5.21155 0
132 1 1.50928 22.3404 0
133 1 12.027 27.8678 0
134 1 10.8589 6.88591 0
135 1 4.96446 28.1187 0
136 1 20.0457 22.7429 0
137 1 25.8535 5.09794 0
138 1 25.5529 15.7646 0
139 1 3.93185 0.553886 0
140 1 0.745204 1.86396 0
141 1 2.30505 15.8362 0
142 1 7.36836 3.98053 0
143 1 19.8344 6.12745 0
144 1 27.2162 24.633 0
145 1 18.8508 15.6631 0
146 1 4.39943 16.6077 0
147 1 6.54418 3.32344 0
148 1 17.7799 0.515879 0
149 1 15.6439 1.3494 0
150 1 11.6942 15.5428 0
151 1 13.2794 15.7366 0
152 1 3.56663 14.6693 0
153 1 24.5931 1.74958 0
154 1 16.3627 0.538492 0
155 1 16.0754 3.67663 0
156 1 24.8957 11.0538 0
157 1 19.8834 14.9744 0
158 1 11.5004 11.8027 0
159 1 10.7344 14.9119 0
160 1 25.3929 25.9096 0
161 1 21.1437 18.2355 0
162 1 15.7634 23.6434 0
163 1 25.4843 17.9605 0
164 1 23.6932 9.04236 0
165 1 11.8887 19.7341 0
166 1 5.16534 8.52765 0
167 1 24.7701 13.7288 0
168 1 25.5177 23.8001 0
169 1 5.82669 11.7843 0
170 1 27.7259 19.5423 0
171 1 29.7431 21.4343 0
172 1 2.54887 5.65177 0
173 1 4.61471 6.33321 0
174 1 15.0924 3.6515 0
175 1 21.5276 6.73072 0
176 1 18.6184 3.44342 0
177 1 22.4351 16.5579 0
178 1 1.81662 19.0701 0
179 1 23.0157 22.461 0
180 1 28.7351 18.0931 0
181 1 2.58843 21.7406 0
182 1 1.53496 9.48538 0
183 1 28.3975 11.1069 0
184 1 26.1721 25.0856 0
185 1 13.2007 7.87155 0
186 1 13.9986 25.9057 0
187 1 0.721387 14.5072 0
188 1 29.1488 25.6742 0
189 1 27.6845 22.438 0
190 1 28.555 25.0807 0
191 1 12.6662 4.03714 0
192 1 12.4291 8.61759 0
193 1 23.2038 20.1831 0
194 1 20.9142 2.09688 0
ITEM: TIMESTEP
1620
ITEM: NUMBER OF ATOMS
194
ITEM: BOX BOUNDS pp pp pp
0.0000000000000000e+00 3.0000000000000000e+01
0.0000000000000000e+00 3.0000000000000000e+01
-5.0000000000000000e-01 5.0000000000000000e-01
ITEM: ATOMS id type x y z
1 1 26.4088 4.12963 0
2 1 21.4775 10.5763 0
3 1 18.6228 23.7355 0
4 1 16.534 17.5513 0
5 1 28.2757 0.0226529 0
6 1 14.4743 29.6066 0
7 1 7.76926 24.6906 0
8 1 22.3268 21.7162 0
9 1 18.9765 22.5949 0
10 1 16.7754 4.19744 0
11 1 1.0929 13.2034 0
12 1 25.9082 9.70348 0
13 1 20.3739 25.2921 0
14 1 25.116 28.8584 0
15 1 15.5172 2.41888 0
16 1 8.61035 12.2848 0
17 1 0.350646 24.321 0
18 1 14.9455 14.2352 0
19 1 21.1944 27.9761 0
20 1 11.67 18.6637 0
21 1 14.4144 27.5258 0
22 1 23.2549 3.22501 0
23 1 4.47354 22.0194 0
24 1 24.0865 6.86567 0
25 1 0.0508651 10.1897 0
26 1 17.6461 27.1989 0
27 1 29.6125 18.2624 0
28 1 18.8807 1.87912 0
29 1 12.7906 5.97293 0
30 1 22.916 25.0731 0
31 1 6.49657 28.9098 0
32 1 5.22443 29.3938 0
33 1 14.6928 24.7625 0
34 1 2.03164 13.867 0
35 1 21.0537 1.0497 0
36 1 29.9395 12.4311 0
37 1 21.664 12.7922 0
38 1 22.7182 6.35134 0
39 1 27.8807 15.8353 0
40 1 11.4028 3.88018 0
41 1 27.2918 4.49284 0
42 1 25.6727 11.0217 0
43 1 1.63659 18.0244 0
44 1 0.255525 22.1037 0
45 1 24.2703 29.3574 0
46 1 1.79147 6.15354 0
47 1 12.8354 17.8175 0
48 1 11.2804 29.4304 0
49 1 27.687 1.32834 0
50 1 6.96271 23.7827 0
51 1 24.4636 16.4715 0
52 1 6.42115 26.9162 0
53 1 4.55269 19.1176 0
54 1 0.762516 20.2044 0
55 1 22.6679 18.356 0
56 1 5.31356 2.7238 0
57 1 21.0352 16.9883 0
58 1 3.6269 1.77299 0
59 1 17.8569 13.2959 0
60 1 22.6821 26.4871 0
61 1 27.9081 13.267 0
62 1 21.7839 5.72308 0
63 1 19.6053 29.8107 0
64 1 21.4713 19.3029 0
65 1 29.7001 22.9205 0
66 1 8.94288 18.3833 0
67 1 28.8044 23.8187 0
68 1 2.27917 12.6803 0
69 1 17.8495 29.339 0
70 1 13.3147 17.1184 0
71 1 27.0942 26.5408 0
72 1 19.8156 26.8507 0
73 1 7.476 27.9982 0
74 1 15.9019 10.3424 0
75 1 4.11245 26.5491 0
76 1 16.1885 24.6699 0
77 1 10.588 24.2014 0
78 1 8.53169 21.9559 0
79 1 14.4901 15.8532 0
80 1 7.31983 2.30201 0
81 1 1.68361 25.6282 0
82 1 28.2492 26.6958 0
83 1 13.7609 9.95005 0
84 1 24.5149 2.8624 0
85 1 14.2083 7.98401 0
86 1 21.0428 23.6642 0
87 1 13.9986 20.7965 0
88 1 23.3488 19.4192 0
89 1 0.738157 16.2055 0
90 1 16.3752 28.7143 0
91 1 9.27763 6.18825 0
92 1 26.2385 14.4451 0
93 1 22.9174 11.8847 0
94 1 5.93194 25.0109 0
95 1 24.4658 28.3585 0
96 1 2.03508 26.7933 0
97 1 23.6207 0.933666 0
98 1 12.2289 6.95574 0
99 1 13.7672 14.8848 0
100 1 20.0644 19.1912 0
101 1 8.34585 20.076 0
102 1 8.28346 26.803 0
103 1 22.9852 15.0294 0
104 1 15.8382 6.591 0
105 1 15.7737 22.3831 0
106 1 8.28267 16.7884 0
107 1 13.4256 23.5008 0
108 1 7.30576 8.11254 0
109 1 14.6282 17.7877 0
110 1 0.126568 8.02007 0
111 1 10.7714 0.881127 0
112 1 1.00196 12.0424 0
113 1 11.512 17.0498 0
114 1 2.26584 4.74984 0
115 1 24.2109 4.21811 0
116 1 9.18062 28.9932 0
117 1 16.8387 16.3323 0
118 1 10.9169 13.6838 0
119 1 1.26379 10.8103 0
120 1 17.5954 1.97797 0
121 1 24.1602 23.8357 0
122 1 18.8511 13.4146 0
123 1 22.6913 10.1188 0
124 1 1.02271 8.4786 0
125 1 25.6206 12.7542 0
126 1 3.35614 18.8903 0
127 1 17.7285 3.29447 0
128 1 24.2208 22.1825 0
129 1 17.351 14.1753 0
130 1 6.84366 10.7721 0
131 1 19.3891 5.26747 0
132 1 1.31338 22.2751 0
133 1 11.6862 27.7563 0
134 1 10.807 6.94576 0
135 1 5.141 28.0325 0
136 1 19.9855 22.3837 0
137 1 25.9499 4.8726 0
138 1 26.0053 15.6406 0
139 1 3.7382 0.688842 0
140 1 0.725175 1.94387 0
141 1 2.33879 15.5932 0
142 1 7.56618 4.07108 0
143 1 19.9709 6.03613 0
144 1 27.638 24.3314 0
145 1 18.8839 15.7559 0
146 1 4.85673 16.5752 0
147 1 6.11888 3.19631 0
148 1 17.9216 0.395605 0
149 1 15.6497 1.16736 0
150 1 11.703 14.9444 0
151 1 13.7411 16.2933 0
152 1 3.19993 14.2614 0
153 1 24.7743 1.41025 0
154 1 16.5314 0.112881 0
155 1 16.1394 3.44521 0
156 1 24.7302 11.2625 0
157 1 19.709 15.3388 0
158 1 11.1802 11.7629 0
159 1 10.7435 15.3392 0
160 1 25.4691 25.7458 0
161 1 20.6703 18.1681 0
162 1 15.4624 23.8385 0
163 1 25.8912 17.6413 0
164 1 23.3925 9.09736 0
165 1 11.9578 20.1378 0
166 1 4.88028 8.70477 0
167 1 24.6821 13.8726 0
168 1 25.3975 23.6728 0
169 1 5.80335 11.9184 0
170 1 27.5806 19.4592 0
171 1 30.0185 21.0329 0
172 1 2.97543 5.84862 0
173 1 4.70303 5.99684 0
174 1 15.2308 3.81687 0
175 1 21.4849 6.61837 0
176 1 18.931 3.74815 0
177 1 22.3563 16.7182 0
178 1 1.65865 19.1879 0
179 1 23.0912 22.4858 0
180 1 28.3801 18.1315 0
181 1 3.09456 21.2466 0
182 1 1.53802 9.33015 0
183 1 28.2741 11.2559 0
184 1 26.1258 25.1336 0
185 1 13.2537 7.98781 0
186 1 13.3807 26.1037 0
187 1 1.08225 14.3484 0
188 1 29.5338 25.8065 0
189 1 27.456 22.2391 0
190 1 28.5424 25.1224 0
191 1 12.5515 4.06576 0
192 1 12.691 8.80086 0
193 1 23.273 20.4908 0
194 1 20.5158 2.16805 0
ITEM: TIMESTEP
1635
ITEM: NUMBER OF ATOMS
194
ITEM: BOX BOUNDS pp pp pp
0.0000000000000000e+00 3.0000000000000000e+01
0.0000000000000000e+00 3.0000000000000000e+01
-5.0000000000000000e-01 5.0000000000000000e-01
ITEM: ATOMS id type x y z
1 1 26.1459 3.51905 0
2 1 21.5526 10.0988 0
3 1 18.3443 23.346 0
4 1 16.7404 17.7857 0
5 1 27.9913 0.0149469 0
6 1 14.5312 29.6783 0
7 1 7.56048 24.8152 0
8 1 22.3429 21.8697 0
9 1 18.7749 22.2863 0
10 1 16.5839 4.4875 0
11 1 1.2359 13.2475 0
12 1 25.3279 9.83248 0
13 1 20.4149 25.5147 0
14 1 25.3753 29.2397 0
15 1 15.4824 2.60494 0
16 1 8.75262 12.4973 0
17 1 0.157842 24.5836 0
18 1 15.0304 14.8322 0
19 1 21.3423 27.8694 0
20 1 11.9547 18.5339 0
21 1 14.3605 27.5374 0
22 1 22.9754 3.21693 0
23 1 4.37095 22.3976 0
24 1 24.3938 6.86717 0
25 1 0.252238 9.88745 0
26 1 18.2211 27.2956 0
27 1 29.675 18.2582 0
28 1 19.0516 1.83028 0
29 1 12.2536 6.20321 0
30 1 22.9697 25.2052 0
31 1 6.43967 29.4919 0
32 1 5.64451 29.6089 0
33 1 14.2637 25.0334 0
34 1 2.10248 13.9399 0
35 1 21.5463 0.913985 0
36 1 29.9862 12.8438 0
37 1 21.8218 12.4929 0
38 1 22.8241 6.35295 0
39 1 27.3106 15.9954 0
40 1 11.2728 3.64615 0
41 1 27.3381 4.40838 0
42 1 25.2596 10.6284 0
43 1 1.51727 18.2174 0
44 1 0.359944 21.9963 0
45 1 24.1744 29.7046 0
46 1 1.84931 6.21735 0
47 1 12.4757 17.96 0
48 1 11.1167 29.3234 0
49 1 27.6397 1.43349 0
50 1 6.99108 23.5882 0
51 1 24.7132 16.3402 0
52 1 6.34185 27.4128 0
53 1 4.26686 19.6093 0
54 1 0.912963 19.7558 0
55 1 22.0525 18.3144 0
56 1 5.17291 2.36256 0
57 1 20.8121 17.0338 0
58 1 3.5214 1.73906 0
59 1 18.0006 13.1467 0
60 1 22.5942 26.5701 0
61 1 28.2771 13.1327 0
62 1 21.3329 5.59584 0
63 1 19.6951 29.8089 0
64 1 21.6442 19.3103 0
65 1 29.5927 22.5533 0
66 1 9.15142 18.5072 0
67 1 28.9041 23.9647 0
68 1 1.99531 12.4249 0
69 1 17.648 29.2569 0
70 1 13.6364 17.3649 0
71 1 27.1446 26.3875 0
72 1 20.4445 26.6709 0
73 1 7.30791 27.9501 0
74 1 15.6928 10.0043 0
75 1 3.94251 26.3549 0
76 1 16.474 24.7927 0
77 1 10.4405 24.1355 0
78 1 8.69887 22.1091 0
79 1 14.7707 15.6352 0
80 1 7.53549 2.23617 0
81 1 1.56888 26.0935 0
82 1 28.374 26.7682 0
83 1 13.7685 9.4597 0
84 1 24.844 2.72429 0
85 1 14.2997 7.8165 0
86 1 20.8676 23.8313 0
87 1 14.0189 20.8329 0
88 1 23.5364 19.4873 0
89 1 0.596742 16.0202 0
90 1 16.3112 28.9536 0
91 1 9.69315 6.08285 0
92 1 26.1072 14.6393 0
93 1 22.5834 11.757 0
94 1 5.83597 24.7173 0
95 1 24.1509 28.7187 0
96 1 1.76927 27.0016 0
97 1 23.5406 0.803632 0
98 1 12.3981 7.16027 0
99 1 13.8761 14.6331 0
100 1 20.0615 18.9805 0
101 1 8.7752 19.8264 0
102 1 8.10512 27.4302 0
103 1 23.071 15.2057 0
104 1 16.3543 6.58722 0
105 1 15.7757 22.7046 0
106 1 8.37074 16.8731 0
107 1 13.3319 23.61 0
108 1 7.26753 8.30094 0
109 1 14.8137 17.2498 0
110 1 29.3979 7.73315 0
111 1 10.8175 0.880793 0
112 1 1.01638 12.2517 0
113 1 11.8476 16.7772 0
114 1 2.60691 4.75026 0
115 1 24.2966 3.78656 0
116 1 9.22661 28.793 0
117 1 16.5576 15.6174 0
118 1 10.6023 14.0635 0
119 1 1.46043 11.1278 0
120 1 17.6168 2.01512 0
121 1 23.9739 24.094 0
122 1 18.9286 13.262 0
123 1 22.9133 10.0255 0
124 1 0.842193 8.4271 0
125 1 25.9239 12.6255 0
126 1 3.38843 18.8508 0
127 1 17.5507 3.44053 0
128 1 24.0223 22.4553 0
129 1 17.6812 14.1735 0
130 1 7.35788 10.9604 0
131 1 19.2231 5.19011 0
132 1 1.20786 22.2282 0
133 1 11.3453 27.6458 0
134 1 10.7578 7.00483 0
135 1 5.32001 27.9491 0
136 1 19.9751 22.0161 0
137 1 25.7979 4.97423 0
138 1 26.4598 15.5244 0
139 1 3.54615 0.803699 0
140 1 0.705146 2.02377 0
141 1 2.37144 15.3473 0
142 1 7.76238 4.15978 0
143 1 20.1915 6.07628 0
144 1 28.0465 24.0355 0
145 1 18.4501 16.1074 0
146 1 5.31401 16.5428 0
147 1 5.8269 3.16038 0
148 1 18.0618 0.288249 0
149 1 15.6587 0.97635 0
150 1 11.7645 14.3426 0
151 1 14.115 16.5802 0
152 1 2.88272 13.853 0
153 1 24.9504 1.07168 0
154 1 16.7072 29.699 0
155 1 16.2119 3.14532 0
156 1 24.5163 11.4878 0
157 1 20.0011 15.4444 0
158 1 10.8599 11.7238 0
159 1 10.6989 15.7674 0
160 1 25.2675 25.8508 0
161 1 20.2041 18.085 0
162 1 15.1462 24.0034 0
163 1 26.2977 17.3213 0
164 1 23.0942 9.14286 0
165 1 12.0265 20.5389 0
166 1 4.59529 8.88186 0
167 1 24.5969 14.0152 0
168 1 25.2728 23.5475 0
169 1 5.78145 12.0508 0
170 1 27.4366 19.374 0
171 1 0.258805 20.5411 0
172 1 3.40405 6.03972 0
173 1 4.79016 5.66047 0
174 1 15.3028 3.9987 0
175 1 21.4167 6.62616 0
176 1 19.2794 4.06847 0
177 1 22.2737 16.8802 0
178 1 1.54384 19.2659 0
179 1 23.1501 22.519 0
180 1 28.0059 18.1684 0
181 1 3.60148 20.7535 0
182 1 1.57348 9.25687 0
183 1 28.1514 11.4053 0
184 1 26.3593 24.9114 0
185 1 13.2436 8.0526 0
186 1 12.7636 26.3022 0
187 1 1.26067 14.2732 0
188 1 29.9549 25.9714 0
189 1 27.2279 22.0409 0
190 1 28.49 25.1256 0
191 1 12.4335 4.09426 0
192 1 12.9234 9.03191 0
193 1 23.3403 20.8602 0
194 1 20.1169 2.24877 0
ITEM: TIMESTEP
1650
ITEM: NUMBER OF ATOMS
194
ITEM: BOX BOUNDS pp pp pp
0.0000000000000000e+00 3.0000000000000000e+01
0.0000000000000000e+00 3.0000000000000000e+01
-5.0000000000000000e-01 5.0000000000000000e-01
ITEM: ATOMS id type x y z
1 1 25.8948 2.91224 0
2 1 21.633 9.62095 0
3 1 18.0668 22.9546 0
4 1 16.9464 18.0194 0
5 1 27.7062 0.0101191 0
6 1 14.5897 29.7504 0
7 1 7.34877 24.936 0
8 1 22.3225 21.9879 0
9 1 18.5759 21.9788 0
10 1 16.3905 4.77145 0
11 1 1.36053 13.2799 0
12 1 24.8008 9.38567 0
13 1 20.4515 25.7272 0
14 1 25.6568 29.6382 0
15 1 15.3187 2.70414 0
16 1 8.89492 12.7096 0
17 1 -0.0389886 24.8485 0
18 1 15.3425 14.7326 0
19 1 21.4894 27.7599 0
20 1 11.6536 19.0185 0
21 1 14.3063 27.5491 0
22 1 22.6996 3.20994 0
23 1 4.26789 22.7752 0
24 1 24.6998 6.86811 0
25 1 0.45808 9.58265 0
26 1 18.7961 27.3927 0
27 1 29.7373 18.2546 0
28 1 19.1616 1.74007 0
29 1 11.7144 6.36613 0
30 1 23.0243 25.3387 0
31 1 6.89751 29.9977 0
32 1 5.54986 29.8968 0
33 1 13.8368 25.3003 0
34 1 1.95232 13.933 0
35 1 22.0387 0.778756 0
36 1 0.0407662 13.2561 0
37 1 21.8839 12.3163 0
38 1 22.9265 6.35482 0
39 1 27.0227 16.3837 0
40 1 11.1475 3.41395 0
41 1 27.3818 4.32341 0
42 1 24.804 10.8047 0
43 1 1.36565 18.3045 0
44 1 0.277221 21.7356 0
45 1 24.09 0.105311 0
46 1 1.91004 6.27959 0
47 1 12.6104 17.5786 0
48 1 10.9523 29.2169 0
49 1 27.5931 1.53579 0
50 1 7.02028 23.3985 0
51 1 24.9638 16.2085 0
52 1 6.2599 27.8769 0
53 1 4.1808 19.5865 0
54 1 0.799177 19.3944 0
55 1 21.4376 18.2588 0
56 1 4.96695 1.94375 0
57 1 20.5899 17.0835 0
58 1 3.41438 1.82886 0
59 1 18.003 12.9698 0
60 1 22.506 26.6503 0
61 1 28.6471 12.9973 0
62 1 20.9026 5.3885 0
63 1 19.7836 29.8078 0
64 1 21.8146 19.3279 0
65 1 29.3855 22.2668 0
66 1 9.35903 18.632 0
67 1 29.297 24.101 0
68 1 1.84638 12.1999 0
69 1 17.622 29.0615 0
70 1 13.9748 17.6463 0
71 1 27.1992 26.2338 0
72 1 21.0798 26.5027 0
73 1 7.07217 27.982 0
74 1 15.4832 9.66599 0
75 1 3.77254 26.161 0
76 1 16.7572 24.9138 0
77 1 10.2929 24.0696 0
78 1 8.86592 22.2622 0
79 1 14.876 16.0608 0
80 1 7.75055 2.17116 0
81 1 1.41792 26.3835 0
82 1 28.495 26.8372 0
83 1 14.0109 9.02768 0
84 1 25.1612 2.58375 0
85 1 14.4075 7.64836 0
86 1 20.692 23.999 0
87 1 14.0388 20.8693 0
88 1 23.7222 19.5584 0
89 1 0.456173 15.8341 0
90 1 16.0542 28.8743 0
91 1 10.1114 5.97993 0
92 1 25.923 14.7412 0
93 1 22.3455 11.505 0
94 1 5.74221 24.4227 0
95 1 23.8134 29.001 0
96 1 1.5374 27.3844 0
97 1 23.4532 0.684656 0
98 1 12.566 7.43249 0
99 1 13.9917 14.3855 0
100 1 20.0403 18.9277 0
101 1 9.20514 19.5754 0
102 1 8.07132 27.999 0
103 1 23.1573 15.3826 0
104 1 16.8703 6.5832 0
105 1 15.7763 23.029 0
106 1 8.45918 16.9586 0
107 1 13.2394 23.7203 0
108 1 7.22931 8.48933 0
109 1 15.3039 16.9143 0
110 1 28.671 7.44725 0
111 1 10.864 0.878632 0
112 1 0.888979 12.4198 0
113 1 12.1847 16.5082 0
114 1 2.94878 4.75424 0
115 1 24.3822 3.35044 0
116 1 9.27203 28.5919 0
117 1 16.2754 14.9024 0
118 1 10.2921 14.4453 0
119 1 1.64733 11.4233 0
120 1 17.6404 2.0549 0
121 1 23.789 24.351 0
122 1 19.1499 13.1284 0
123 1 23.105 10.1073 0
124 1 0.65513 8.37085 0
125 1 26.2263 12.4969 0
126 1 3.42232 18.8143 0
127 1 17.3677 3.58492 0
128 1 24.0797 22.7138 0
129 1 18.0086 14.1812 0
130 1 7.8718 11.1494 0
131 1 19.0502 5.13396 0
132 1 1.3876 22.2521 0
133 1 11.0046 27.5361 0
134 1 10.7088 7.06079 0
135 1 5.42551 27.8807 0
136 1 19.9616 21.6498 0
137 1 25.6455 5.07691 0
138 1 26.7032 15.2341 0
139 1 3.35682 0.795193 0
140 1 0.685117 2.10368 0
141 1 2.40179 15.0953 0
142 1 7.95829 4.24784 0
143 1 20.4013 6.13093 0
144 1 28.165 23.7574 0
145 1 18.0165 16.4584 0
146 1 5.77128 16.5104 0
147 1 5.60002 3.18137 0
148 1 18.2005 0.183542 0
149 1 15.6682 0.78498 0
150 1 11.8209 13.7407 0
151 1 14.1991 16.5841 0
152 1 3.21303 13.3816 0
153 1 25.122 0.731008 0
154 1 16.9017 29.7171 0
155 1 16.4186 2.9376 0
156 1 24.2915 11.7199 0
157 1 20.2928 15.551 0
158 1 10.5394 11.6849 0
159 1 10.657 16.1948 0
160 1 25.0658 25.9559 0
161 1 19.7619 17.8402 0
162 1 14.8299 24.17 0
163 1 26.6839 17.0391 0
164 1 22.8217 9.01516 0
165 1 12.0956 20.9395 0
166 1 4.31029 9.05896 0
167 1 24.5134 14.1584 0
168 1 25.1439 23.4232 0
169 1 5.76006 12.1827 0
170 1 27.2943 19.2847 0
171 1 0.31085 20.3254 0
172 1 3.83203 6.228 0
173 1 4.87421 5.32501 0
174 1 15.3791 4.17747 0
175 1 21.3417 6.69851 0
176 1 19.6357 4.36784 0
177 1 22.188 17.045 0
178 1 1.9141 19.0899 0
179 1 22.9935 22.6004 0
180 1 27.6308 18.2087 0
181 1 3.90626 20.7727 0
182 1 1.61011 9.19147 0
183 1 28.0288 11.5559 0
184 1 26.5939 24.6891 0
185 1 13.2309 8.09233 0
186 1 12.1467 26.5011 0
187 1 1.03886 14.3914 0
188 1 0.376238 26.1326 0
189 1 26.9999 21.8431 0
190 1 28.4394 25.1225 0
191 1 12.3107 4.1212 0
192 1 12.908 9.23045 0
193 1 23.4058 21.2308 0
194 1 19.7756 2.37035 0
ITEM: TIMESTEP
1665
ITEM: NUMBER OF ATOMS
194
ITEM: BOX BOUNDS pp pp pp
0.0000000000000000e+00 3.0000000000000000e+01
0.0000000000000000e+00 3.0000000000000000e+01
-5.0000000000000000e-01 5.0000000000000000e-01
ITEM: ATOMS id type x y z
1 1 26.2254 2.55238 0
2 1 21.713 9.14481 0
3 1 17.7874 22.5662 0
4 1 17.1525 18.2521 0
5 1 27.4205 0.00754681 0
6 1 14.6513 29.8236 0
7 1 7.13538 25.0544 0
8 1 22.1785 21.9876 0
9 1 18.3821 21.6675 0
10 1 16.1977 5.05309 0
11 1 1.35345 13.2026 0
12 1 24.2739 8.91858 0
13 1 20.4691 25.9083 0
14 1 25.9871 29.9888 0
15 1 15.1254 2.79082 0
16 1 9.03743 12.9211 0
17 1 29.8028 25.1896 0
18 1 15.2627 14.4656 0
19 1 21.6369 27.6438 0
20 1 11.3456 19.5111 0
21 1 14.2522 27.5608 0
22 1 22.4252 3.20312 0
23 1 4.16492 23.1525 0
24 1 25.0053 6.86853 0
25 1 0.666136 9.2774 0
26 1 19.3711 27.4899 0
27 1 29.8029 18.2529 0
28 1 19.0692 1.4718 0
29 1 11.1995 6.50735 0
30 1 23.0796 25.4735 0
31 1 7.39221 0.49965 0
32 1 5.4183 0.187782 0
33 1 13.4109 25.5644 0
34 1 1.99685 14.0724 0
35 1 22.4453 0.635724 0
36 1 0.102709 13.6663 0
37 1 21.7922 12.3608 0
38 1 23.0277 6.35715 0
39 1 27.3174 16.033 0
40 1 11.0259 3.18387 0
41 1 27.4244 4.23833 0
42 1 24.3545 10.9844 0
43 1 1.19616 18.137 0
44 1 0.215561 21.4493 0
45 1 24.2338 0.32072 0
46 1 1.97174 6.34127 0
47 1 12.7568 17.1911 0
48 1 10.7871 29.1101 0
49 1 27.5464 1.63596 0
50 1 7.04899 23.2117 0
51 1 25.2155 16.0754 0
52 1 6.11657 28.2505 0
53 1 4.35999 18.9724 0
54 1 0.786574 18.878 0
55 1 20.8204 18.1919 0
56 1 4.76022 1.52705 0
57 1 20.3706 17.135 0
58 1 3.31042 1.96516 0
59 1 17.9989 12.7959 0
60 1 22.4357 26.737 0
61 1 29.0198 12.8609 0
62 1 20.5864 5.07092 0
63 1 19.8703 29.8074 0
64 1 21.9837 19.352 0
65 1 29.1479 22.0007 0
66 1 9.58762 18.5364 0
67 1 29.6968 24.171 0
68 1 1.97167 12.4895 0
69 1 17.8256 28.7124 0
70 1 14.2935 17.9617 0
71 1 27.2572 26.0791 0
72 1 21.7174 26.3615 0
73 1 7.2628 28.1123 0
74 1 15.2717 9.32657 0
75 1 3.6025 25.9672 0
76 1 17.0398 25.0345 0
77 1 10.1452 24.0035 0
78 1 9.03288 22.4155 0
79 1 15.0719 16.3639 0
80 1 7.96546 2.10636 0
81 1 1.45676 26.6423 0
82 1 28.6133 26.9034 0
83 1 14.3823 8.61061 0
84 1 24.9156 2.17186 0
85 1 14.5094 7.48543 0
86 1 20.5163 24.1675 0
87 1 14.0582 20.9057 0
88 1 23.9071 19.6306 0
89 1 0.316852 15.6456 0
90 1 15.7582 28.744 0
91 1 10.5322 5.88095 0
92 1 25.6251 14.7542 0
93 1 22.263 11.0298 0
94 1 5.65063 24.1272 0
95 1 23.4767 29.2814 0
96 1 1.32182 27.8716 0
97 1 23.2287 0.762469 0
98 1 12.6086 7.58467 0
99 1 14.1119 14.14 0
100 1 20.0225 18.9065 0
101 1 9.61408 19.5441 0
102 1 8.16644 28.5508 0
103 1 23.2443 15.5596 0
104 1 17.3861 6.57859 0
105 1 15.7756 23.3559 0
106 1 8.54804 17.0446 0
107 1 13.1489 23.8322 0
108 1 7.19109 8.67772 0
109 1 16.0645 16.7946 0
110 1 27.9445 7.16148 0
111 1 10.9105 0.87512 0
112 1 0.588033 12.5354 0
113 1 12.5204 16.2366 0
114 1 3.29129 4.75997 0
115 1 24.4479 2.93831 0
116 1 9.31483 28.3894 0
117 1 16.4303 14.2065 0
118 1 9.98362 14.8274 0
119 1 1.69662 11.1935 0
120 1 17.6637 2.09733 0
121 1 23.6037 24.6078 0
122 1 19.3763 12.9972 0
123 1 23.2946 10.2315 0
124 1 0.470517 8.31742 0
125 1 26.5286 12.3681 0
126 1 3.42147 18.7607 0
127 1 17.1817 3.72868 0
128 1 24.1817 22.9711 0
129 1 18.3367 14.1842 0
130 1 8.386 11.339 0
131 1 18.8429 5.13721 0
132 1 1.57628 22.2784 0
133 1 10.6653 27.4263 0
134 1 10.635 7.13481 0
135 1 5.04068 27.8242 0
136 1 19.9446 21.2845 0
137 1 25.4933 5.17913 0
138 1 26.9336 14.8882 0
139 1 3.16695 0.740492 0
140 1 0.665088 2.18359 0
141 1 2.43263 14.8455 0
142 1 8.15413 4.33556 0
143 1 20.4996 6.30416 0
144 1 28.2352 23.4805 0
145 1 17.5827 16.8098 0
146 1 6.22857 16.478 0
147 1 5.37175 3.19969 0
148 1 18.3354 0.0742543 0
149 1 15.6772 0.590905 0
150 1 11.8757 13.1393 0
151 1 13.8876 16.6072 0
152 1 3.57016 12.9052 0
153 1 25.2391 0.437326 0
154 1 16.9089 29.9472 0
155 1 16.6579 2.74596 0
156 1 24.0579 11.9688 0
157 1 20.5847 15.6599 0
158 1 10.2184 11.6464 0
159 1 10.6167 16.6219 0
160 1 24.8644 26.0602 0
161 1 19.3207 17.5618 0
162 1 14.5125 24.3362 0
163 1 26.6098 17.6406 0
164 1 22.5528 8.84601 0
165 1 12.1651 21.3397 0
166 1 4.02528 9.23605 0
167 1 24.432 14.3033 0
168 1 25.0183 23.3015 0
169 1 5.73879 12.3145 0
170 1 27.151 19.2022 0
171 1 0.188823 20.3779 0
172 1 4.26163 6.41292 0
173 1 4.95503 4.99162 0
174 1 15.458 4.35192 0
175 1 21.2859 6.77892 0
176 1 20.0061 4.5906 0
177 1 22.0989 17.2122 0
178 1 2.37425 19.057 0
179 1 22.9159 22.7947 0
180 1 27.2574 18.2419 0
181 1 3.97765 21.401 0
182 1 1.64204 9.12398 0
183 1 27.9066 11.7085 0
184 1 26.8293 24.4677 0
185 1 13.3488 8.25632 0
186 1 11.5284 26.7015 0
187 1 0.751421 14.5424 0
188 1 0.589548 26.2163 0
189 1 26.772 21.6455 0
190 1 28.3914 25.114 0
191 1 12.1842 4.14614 0
192 1 12.7643 9.40533 0
193 1 23.4672 21.6071 0
194 1 19.6339 2.66975 0
ITEM: TIMESTEP
1680
ITEM: NUMBER OF ATOMS
194
ITEM: BOX BOUNDS pp pp pp
0.0000000000000000e+00 3.0000000000000000e+01
0.0000000000000000e+00 3.0000000000000000e+01
-5.0000000000000000e-01 5.0000000000000000e-01
ITEM: ATOMS id type x y z
1 1 26.6346 2.22211 0
2 1 21.4975 8.76032 0
3 1 17.5033 22.1847 0
4 1 17.3589 18.4817 0
5 1 27.2367 -0.00986797 0
6 1 14.7182 29.8977 0
7 1 6.9211 25.1716 0
8 1 22.0182 21.9658 0
9 1 18.1946 21.349 0
10 1 16.0307 5.3605 0
11 1 1.25685 13.206 0
12 1 23.7449 8.4528 0
13 1 20.4894 26.0894 0
14 1 26.451 0.179084 0
15 1 14.9353 2.87927 0
16 1 9.1803 13.131 0
17 1 29.6675 25.6005 0
18 1 14.9935 14.2088 0
19 1 21.7864 27.5202 0
20 1 11.0359 20.0037 0
21 1 14.1985 27.5729 0
22 1 22.1512 3.19627 0
23 1 4.06272 23.5292 0
24 1 25.3105 6.86809 0
25 1 0.807997 9.04663 0
26 1 19.9463 27.587 0
27 1 29.8591 18.2417 0
28 1 18.9695 1.19729 0
29 1 11.1003 6.62566 0
30 1 23.0999 25.6745 0
31 1 7.8869 1.00265 0
32 1 5.28678 0.479927 0
33 1 12.9858 25.8268 0
34 1 1.91632 14.0004 0
35 1 22.1419 0.401064 0
36 1 0.115428 13.9821 0
37 1 21.7006 12.4043 0
38 1 23.1284 6.35983 0
39 1 27.6221 15.6532 0
40 1 10.9063 2.95526 0
41 1 27.4667 4.1531 0
42 1 23.9155 11.1433 0
43 1 1.25778 17.544 0
44 1 0.158081 21.2393 0
45 1 24.3365 0.487021 0
46 1 2.03378 6.40275 0
47 1 12.8428 16.9053 0
48 1 10.6205 29.0023 0
49 1 27.498 1.73545 0
50 1 7.07688 23.0263 0
51 1 25.4684 15.9382 0
52 1 5.97559 28.6293 0
53 1 4.61732 18.3869 0
54 1 0.555017 18.7998 0
55 1 20.249 18.0696 0
56 1 4.55139 1.11008 0
57 1 20.1495 17.1739 0
58 1 3.2083 2.09735 0
59 1 17.9991 12.6261 0
60 1 22.7855 27.0569 0
61 1 29.394 12.7257 0
62 1 20.9399 5.29258 0
63 1 19.9545 29.8078 0
64 1 22.1516 19.3742 0
65 1 28.9128 21.7339 0
66 1 9.82569 18.2687 0
67 1 30.0686 24.1744 0
68 1 2.19086 12.7458 0
69 1 18.0293 28.3675 0
70 1 14.6108 18.2724 0
71 1 27.3185 25.9224 0
72 1 21.933 25.9898 0
73 1 7.46506 28.2306 0
74 1 15.0778 9.0143 0
75 1 3.43237 25.7736 0
76 1 17.3223 25.1548 0
77 1 9.99721 23.937 0
78 1 9.19993 22.5695 0
79 1 15.2449 16.5988 0
80 1 8.17984 2.04016 0
81 1 1.79359 27.0218 0
82 1 28.7304 26.9675 0
83 1 14.737 8.18601 0
84 1 24.687 1.57249 0
85 1 14.6064 7.30539 0
86 1 20.3405 24.3372 0
87 1 14.0771 20.9422 0
88 1 24.0915 19.7032 0
89 1 0.165761 15.4845 0
90 1 15.4618 28.6168 0
91 1 10.7747 5.54991 0
92 1 25.3208 14.7676 0
93 1 22.1847 10.5524 0
94 1 5.56016 23.8311 0
95 1 23.1417 29.5693 0
96 1 1.10652 28.3546 0
97 1 23.6401 0.976841 0
98 1 12.5667 7.65782 0
99 1 14.2052 13.8847 0
100 1 19.9611 18.9486 0
101 1 10.0151 19.6843 0
102 1 8.30463 29.1169 0
103 1 23.3322 15.7362 0
104 1 17.902 6.57326 0
105 1 15.7738 23.684 0
106 1 8.63757 17.1312 0
107 1 13.0615 23.9462 0
108 1 7.15287 8.86612 0
109 1 16.6587 16.62 0
110 1 27.2179 6.87571 0
111 1 10.957 0.870827 0
112 1 0.261386 12.6262 0
113 1 12.8433 15.8951 0
114 1 3.63533 4.76658 0
115 1 24.419 2.68065 0
116 1 9.35589 28.1871 0
117 1 16.8021 13.5111 0
118 1 9.67534 15.2097 0
119 1 1.73367 10.9184 0
120 1 17.6952 2.13646 0
121 1 23.4517 24.8014 0
122 1 19.5977 12.8668 0
123 1 23.4774 10.3505 0
124 1 0.268776 8.2001 0
125 1 26.833 12.2383 0
126 1 3.48192 18.6181 0
127 1 16.995 3.87275 0
128 1 24.0486 23.1516 0
129 1 18.6649 14.1823 0
130 1 8.90174 11.5298 0
131 1 18.6372 5.14148 0
132 1 1.76299 22.3036 0
133 1 10.2671 27.3629 0
134 1 10.3251 7.4645 0
135 1 4.60302 27.7607 0
136 1 19.926 20.9196 0
137 1 25.3411 5.2821 0
138 1 27.1679 14.5494 0
139 1 2.97853 0.689673 0
140 1 0.645059 2.26349 0
141 1 2.61203 14.8394 0
142 1 8.34995 4.4231 0
143 1 20.4592 6.40841 0
144 1 28.3071 23.2056 0
145 1 17.3704 17.2701 0
146 1 6.68596 16.4456 0
147 1 5.1428 3.21782 0
148 1 18.4687 29.9634 0
149 1 15.6862 0.392167 0
150 1 11.9303 12.5378 0
151 1 13.6182 16.6197 0
152 1 3.92535 12.4289 0
153 1 25.2349 0.320065 0
154 1 16.9157 0.176796 0
155 1 16.8875 2.55799 0
156 1 23.8155 12.2424 0
157 1 20.8763 15.7716 0
158 1 9.89585 11.6086 0
159 1 10.5765 17.0488 0
160 1 24.6621 26.1639 0
161 1 18.8828 17.286 0
162 1 14.1926 24.5012 0
163 1 26.157 17.9765 0
164 1 22.5825 8.58807 0
165 1 12.2348 21.7394 0
166 1 3.74016 9.41314 0
167 1 24.3531 14.4505 0
168 1 25.1206 23.255 0
169 1 5.7173 12.4464 0
170 1 26.9828 19.2831 0
171 1 0.0623145 20.3548 0
172 1 4.69176 6.59564 0
173 1 5.0336 4.65894 0
174 1 15.5129 4.49716 0
175 1 21.3631 6.9381 0
176 1 19.7116 4.26267 0
177 1 22.0075 17.3802 0
178 1 2.69132 19.0842 0
179 1 22.8662 23.0061 0
180 1 27.2752 18.4012 0
181 1 4.04914 22.0299 0
182 1 1.75756 9.04638 0
183 1 27.7834 11.8632 0
184 1 27.0669 24.2475 0
185 1 13.5504 8.50168 0
186 1 10.9677 26.8576 0
187 1 0.534345 14.7473 0
188 1 0.502418 26.1805 0
189 1 26.5443 21.448 0
190 1 28.3451 25.1051 0
191 1 12.0555 4.16958 0
192 1 12.6242 9.57449 0
193 1 23.5238 21.9911 0
194 1 19.4967 2.97451 0
ITEM: TIMESTEP
1695
ITEM: NUMBER OF ATOMS
194
ITEM: BOX BOUNDS pp pp pp
0.0000000000000000e+00 3.0000000000000000e+01
0.0000000000000000e+00 3.0000000000000000e+01
-5.0000000000000000e-01 5.0000000000000000e-01
ITEM: ATOMS id type x y z
1 1 26.7381 2.03435 0
2 1 21.1706 8.40489 0
3 1 17.2149 21.8085 0
4 1 17.5531 18.7859 0
5 1 27.7393 29.8386 0
6 1 14.7724 29.9642 0
7 1 6.70642 25.288 0
8 1 21.8632 21.9472 0
9 1 18.0121 21.0251 0
10 1 15.8879 5.70251 0
11 1 1.10003 13.2317 0
12 1 23.376 7.934 0
13 1 20.5125 26.2716 0
14 1 26.2528 0.507252 0
15 1 14.7462 2.96879 0
16 1 9.32347 13.3386 0
17 1 29.4844 25.9874 0
18 1 15.0227 14.0755 0
19 1 21.9345 27.3941 0
20 1 10.8357 20.577 0
21 1 14.146 27.586 0
22 1 21.8772 3.18948 0
23 1 3.96263 23.9037 0
24 1 25.616 6.866 0
25 1 0.854824 8.86998 0
26 1 20.5226 27.6826 0
27 1 29.748 18.0901 0
28 1 18.8675 0.919964 0
29 1 11.0974 6.82358 0
30 1 23.071 25.9964 0
31 1 8.32952 1.24628 0
32 1 5.27834 0.705652 0
33 1 12.5612 26.0882 0
34 1 1.80309 13.8708 0
35 1 21.8313 0.162682 0
36 1 -0.0440989 13.9875 0
37 1 21.6094 12.4472 0
38 1 23.2287 6.36315 0
39 1 27.9247 15.269 0
40 1 10.7876 2.72734 0
41 1 27.5087 4.06757 0
42 1 23.5468 11.4506 0
43 1 1.32031 16.9473 0
44 1 0.119767 21.2702 0
45 1 24.4201 0.234215 0
46 1 2.09596 6.46411 0
47 1 12.4691 16.8533 0
48 1 10.4513 28.8921 0
49 1 27.7541 1.6906 0
50 1 7.10398 22.8416 0
51 1 25.7207 15.7961 0
52 1 5.83526 29.0068 0
53 1 4.87502 17.8023 0
54 1 0.489764 18.8678 0
55 1 19.7671 18.02 0
56 1 4.21684 0.759734 0
57 1 19.9098 16.9747 0
58 1 3.10699 2.2254 0
59 1 18.0018 12.4581 0
60 1 23.1753 27.3989 0
61 1 29.2139 12.6354 0
62 1 21.3251 5.54808 0
63 1 20.0355 29.8092 0
64 1 22.3197 19.396 0
65 1 28.6817 21.4666 0
66 1 10.0392 18.0325 0
67 1 0.438971 24.1805 0
68 1 2.45552 12.9712 0
69 1 18.2335 28.0243 0
70 1 14.9279 18.5816 0
71 1 27.3842 25.7621 0
72 1 22.1068 25.5924 0
73 1 7.66584 28.3508 0
74 1 14.9599 8.89009 0
75 1 3.26212 25.5802 0
76 1 17.6046 25.275 0
77 1 9.84818 23.8685 0
78 1 9.36779 22.7253 0
79 1 15.4194 16.8344 0
80 1 8.44638 2.23289 0
81 1 2.12806 27.4027 0
82 1 28.848 27.0287 0
83 1 15.058 7.8313 0
84 1 24.6329 1.20134 0
85 1 14.6543 6.86926 0
86 1 20.165 24.508 0
87 1 14.0957 20.9789 0
88 1 24.2754 19.7758 0
89 1 -0.198122 15.7261 0
90 1 15.1632 28.4919 0
91 1 10.9481 5.108 0
92 1 25.0935 14.808 0
93 1 22.1113 10.0743 0
94 1 5.46883 23.5343 0
95 1 22.8075 29.8632 0
96 1 0.892246 28.8347 0
97 1 23.6797 1.38568 0
98 1 12.5268 7.73293 0
99 1 14.001 13.5057 0
100 1 19.8246 19.1539 0
101 1 10.3063 19.7411 0
102 1 8.44517 29.68 0
103 1 23.4212 15.9117 0
104 1 18.4184 6.56617 0
105 1 15.7716 24.0126 0
106 1 8.72848 17.2183 0
107 1 12.9779 24.0626 0
108 1 7.11464 9.05451 0
109 1 16.6611 16.1307 0
110 1 26.4908 6.58981 0
111 1 11.0033 0.866273 0
112 1 0.475654 12.6675 0
113 1 13.1555 15.4948 0
114 1 3.98323 4.77294 0
115 1 24.3791 2.44435 0
116 1 9.2855 28.1367 0
117 1 17.173 12.8158 0
118 1 9.36704 15.5924 0
119 1 1.77068 10.6435 0
120 1 17.9059 2.08697 0
121 1 23.3505 24.8791 0
122 1 19.8166 12.7374 0
123 1 23.5857 10.3146 0
124 1 0.0422177 8.03299 0
125 1 26.9226 12.1784 0
126 1 3.82276 18.3367 0
127 1 16.806 4.01365 0
128 1 23.8248 23.31 0
129 1 18.9932 14.1777 0
130 1 8.88201 11.7202 0
131 1 18.434 5.14481 0
132 1 1.94931 22.3285 0
133 1 9.72268 27.3416 0
134 1 9.98951 7.82532 0
135 1 4.16703 27.698 0
136 1 19.9066 20.5543 0
137 1 25.1889 5.38695 0
138 1 27.4029 14.2151 0
139 1 2.79239 0.64269 0
140 1 0.625031 2.3434 0
141 1 2.84605 14.9146 0
142 1 8.54577 4.51051 0
143 1 20.3788 6.48289 0
144 1 28.3787 22.931 0
145 1 17.7613 17.9697 0
146 1 7.14369 16.4134 0
147 1 4.9133 3.239 0
148 1 18.6038 29.8552 0
149 1 15.7143 0.197 0
150 1 11.9847 11.9362 0
151 1 13.8217 16.4579 0
152 1 4.28045 11.9529 0
153 1 25.4409 0.173803 0
154 1 16.9194 0.406872 0
155 1 16.9394 2.46197 0
156 1 23.5716 12.5222 0
157 1 21.1673 15.8856 0
158 1 10.1087 11.5738 0
159 1 10.56 17.4458 0
160 1 24.4574 26.2668 0
161 1 18.4485 17.0118 0
162 1 13.8689 24.6646 0
163 1 25.5784 18.2218 0
164 1 22.5635 8.35416 0
165 1 12.3049 22.1389 0
166 1 3.45451 9.59015 0
167 1 24.198 14.5767 0
168 1 25.3102 23.2301 0
169 1 5.6949 12.5782 0
170 1 26.7646 19.5799 0
171 1 29.913 20.0911 0
172 1 5.12185 6.77757 0
173 1 5.10851 4.32402 0
174 1 15.5455 4.60535 0
175 1 21.4825 7.12196 0
176 1 19.3887 4.00495 0
177 1 21.9147 17.5482 0
178 1 2.72694 19.249 0
179 1 22.8186 23.2112 0
180 1 27.4686 18.4352 0
181 1 4.12061 22.6618 0
182 1 1.99351 8.96549 0
183 1 27.8759 11.9488 0
184 1 27.3076 24.0286 0
185 1 13.7537 8.74591 0
186 1 10.6642 26.8248 0
187 1 0.70874 14.848 0
188 1 0.460105 26.1677 0
189 1 26.3167 21.2505 0
190 1 28.2973 25.0987 0
191 1 11.9254 4.19264 0
192 1 12.4863 9.74035 0
193 1 23.5764 22.3801 0
194 1 19.3504 3.18274 0
ITEM: TIMESTEP
1710
ITEM: NUMBER OF ATOMS
194
ITEM: BOX BOUNDS pp pp pp
0.0000000000000000e+00 3.0000000000000000e+01
0.0000000000000000e+00 3.0000000000000000e+01
-5.0000000000000000e-01 5.0000000000000000e-01
ITEM: ATOMS id type x y z
1 1 26.6053 1.94859 0
2 1 20.8487 8.04654 0
3 1 16.926 21.4329 0
4 1 17.6601 19.4907 0
5 1 28.2478 29.6864 0
6 1 14.7591 0.01233 0
7 1 6.49159 25.4042 0
8 1 21.7104 21.9305 0
9 1 17.8306 20.7 0
10 1 15.745 6.04642 0
11 1 1.0542 13.3972 0
12 1 23.3774 7.27195 0
13 1 20.5372 26.4566 0
14 1 26.2423 0.922799 0
15 1 14.5578 3.05903 0
16 1 9.46655 13.5446 0
17 1 29.2533 26.3271 0
18 1 15.0896 13.9595 0
19 1 22.0836 27.2668 0
20 1 10.7701 21.2735 0
21 1 14.0962 27.6016 0
22 1 21.6033 3.18275 0
23 1 3.86436 24.2753 0
24 1 25.4171 7.13219 0
25 1 0.894935 8.6939 0
26 1 21.1017 27.7742 0
27 1 29.5928 17.8979 0
28 1 18.7672 0.662925 0
29 1 11.0933 7.02255 0
30 1 23.054 26.3329 0
31 1 8.70992 1.14775 0
32 1 5.35516 0.898416 0
33 1 12.1369 26.3492 0
34 1 1.86315 13.8886 0
35 1 21.4863 29.9293 0
36 1 29.7878 13.9664 0
37 1 21.5179 12.4899 0
38 1 23.3284 6.36722 0
39 1 28.226 14.8812 0
40 1 10.6694 2.49941 0
41 1 27.5507 3.98171 0
42 1 23.1894 11.7897 0
43 1 1.38175 16.3508 0
44 1 0.0799167 21.313 0
45 1 24.4107 29.5949 0
46 1 2.15816 6.5255 0
47 1 12.0857 16.8033 0
48 1 10.2784 28.7791 0
49 1 28.245 1.5407 0
50 1 7.13041 22.6574 0
51 1 25.9706 15.6503 0
52 1 5.69486 29.385 0
53 1 5.12882 17.2198 0
54 1 0.467642 18.9795 0
55 1 19.2838 18.0556 0
56 1 3.79343 0.441809 0
57 1 19.6694 16.6824 0
58 1 3.00602 2.35132 0
59 1 18.3496 12.1823 0
60 1 23.5615 27.736 0
61 1 28.875 12.5577 0
62 1 21.7077 5.80862 0
63 1 20.1128 29.8118 0
64 1 22.4879 19.4172 0
65 1 28.4534 21.2008 0
66 1 9.83276 18.2694 0
67 1 0.809017 24.1874 0
68 1 2.71741 13.1973 0
69 1 18.4381 27.6818 0
70 1 15.2452 18.8899 0
71 1 27.4448 25.6049 0
72 1 22.2706 25.1921 0
73 1 7.86954 28.473 0
74 1 14.8544 8.80675 0
75 1 3.09223 25.3862 0
76 1 17.8868 25.3951 0
77 1 9.69903 23.802 0
78 1 9.53562 22.8793 0
79 1 15.5951 17.0691 0
80 1 8.77551 2.76737 0
81 1 2.46252 27.7837 0
82 1 28.9536 27.1163 0
83 1 15.3959 7.52416 0
84 1 24.8436 1.19106 0
85 1 14.6783 6.34353 0
86 1 19.9897 24.6797 0
87 1 14.114 21.0157 0
88 1 24.4594 19.848 0
89 1 29.41 16.0113 0
90 1 14.8613 28.3675 0
91 1 11.111 4.67508 0
92 1 25.0237 14.894 0
93 1 22.041 9.59516 0
94 1 5.37454 23.2369 0
95 1 22.5091 0.153351 0
96 1 0.678426 29.3144 0
97 1 23.4957 1.82418 0
98 1 12.4875 7.80902 0
99 1 13.759 13.1097 0
100 1 19.6848 19.3606 0
101 1 10.4627 19.6733 0
102 1 8.58492 0.240703 0
103 1 23.5114 16.0853 0
104 1 18.9355 6.55593 0
105 1 15.7691 24.3414 0
106 1 8.82144 17.3052 0
107 1 12.8788 24.1665 0
108 1 7.07642 9.2429 0
109 1 16.6615 15.6435 0
110 1 26.2663 6.03282 0
111 1 11.0495 0.862037 0
112 1 0.563622 12.4225 0
113 1 13.4681 15.0981 0
114 1 4.33593 4.777 0
115 1 24.3462 2.20578 0
116 1 8.93453 28.4979 0
117 1 17.2 12.229 0
118 1 9.05827 15.9763 0
119 1 1.80815 10.367 0
120 1 18.1964 2.00113 0
121 1 23.2502 24.9495 0
122 1 20.0349 12.6091 0
123 1 23.6787 10.2349 0
124 1 29.8163 7.86575 0
125 1 26.7574 12.1952 0
126 1 4.16734 18.0537 0
127 1 16.6137 4.15447 0
128 1 23.6811 23.6119 0
129 1 19.3218 14.1714 0
130 1 8.56037 11.9151 0
131 1 18.2329 5.14842 0
132 1 2.1355 22.3533 0
133 1 9.42738 26.9289 0
134 1 9.65605 8.18416 0
135 1 3.73061 27.6354 0
136 1 19.8882 20.1942 0
137 1 25.0381 5.49472 0
138 1 27.6395 13.8842 0
139 1 2.61009 0.597607 0
140 1 0.605066 2.4233 0
141 1 3.07749 14.9871 0
142 1 8.74165 4.59773 0
143 1 20.3043 6.55649 0
144 1 28.4495 22.6556 0
145 1 18.2432 18.2646 0
146 1 7.60245 16.3815 0
147 1 4.67271 3.23684 0
148 1 18.7387 29.7272 0
149 1 15.8157 0.0181085 0
150 1 12.0384 11.3343 0
151 1 14.0355 16.291 0
152 1 4.63701 11.4778 0
153 1 25.4974 29.9411 0
154 1 16.9193 0.636543 0
155 1 16.9135 2.40265 0
156 1 23.3279 12.8133 0
157 1 21.4578 16.0012 0
158 1 10.6243 11.5365 0
159 1 10.9617 17.3695 0
160 1 24.2476 26.3691 0
161 1 18.0152 16.7421 0
162 1 13.5607 24.8407 0
163 1 25.001 18.4683 0
164 1 22.1682 8.2627 0
165 1 12.3751 22.5384 0
166 1 3.16656 9.76655 0
167 1 23.8865 14.6628 0
168 1 25.4968 23.2051 0
169 1 5.67072 12.7092 0
170 1 26.5459 19.8775 0
171 1 29.7636 19.8129 0
172 1 5.55187 6.95927 0
173 1 5.18947 4.01479 0
174 1 15.5801 4.7102 0
175 1 21.5999 7.30622 0
176 1 19.1009 4.31222 0
177 1 21.8214 17.716 0
178 1 2.76254 19.4131 0
179 1 22.72 23.4091 0
180 1 27.6607 18.4688 0
181 1 4.19354 23.2979 0
182 1 2.23734 8.88668 0
183 1 28.2227 11.9571 0
184 1 27.5517 23.8111 0
185 1 13.95 8.98979 0
186 1 10.3933 26.776 0
187 1 0.926187 14.9212 0
188 1 0.475281 26.1726 0
189 1 26.0895 21.0517 0
190 1 28.2557 25.0881 0
191 1 11.8053 4.20764 0
192 1 12.3497 9.90498 0
193 1 23.6007 22.6337 0
194 1 19.1659 2.82778 0
ITEM: TIMESTEP
1725
ITEM: NUMBER OF ATOMS
194
ITEM: BOX BOUNDS pp pp pp
0.0000000000000000e+00 3.0000000000000000e+01
0.0000000000000000e+00 3.0000000000000000e+01
-5.0000000000000000e-01 5.0000000000000000e-01
ITEM: ATOMS id type x y z
1 1 26.5411 2.03784 0
2 1 20.524 7.69247 0
3 1 16.6393 21.0551 0
4 1 17.7451 19.7043 0
5 1 28.7563 29.535 0
6 1 14.7211 0.0563778 0
7 1 6.27671 25.5203 0
8 1 21.5584 21.9145 0
9 1 17.6673 20.8776 0
10 1 15.6154 6.38285 0
11 1 0.871733 13.4959 0
12 1 23.3941 7.09105 0
13 1 20.564 26.6442 0
14 1 26.1825 1.17648 0
15 1 14.3699 3.14974 0
16 1 9.60939 13.75 0
17 1 29.1441 26.3403 0
18 1 15.1542 13.8428 0
19 1 22.2485 27.1258 0
20 1 10.704 21.9691 0
21 1 14.0176 27.5852 0
22 1 21.3294 3.17593 0
23 1 3.74832 24.6873 0
24 1 25.0507 7.4977 0
25 1 0.936249 8.51629 0
26 1 21.665 27.8764 0
27 1 29.4395 17.7084 0
28 1 18.6687 0.524283 0
29 1 11.09 7.22272 0
30 1 23.039 26.6669 0
31 1 9.18898 1.43966 0
32 1 5.43044 1.08864 0
33 1 11.712 26.6101 0
34 1 2.10288 14.0435 0
35 1 21.1136 29.6948 0
36 1 29.6243 13.944 0
37 1 21.4252 12.5327 0
38 1 23.4108 5.89031 0
39 1 28.5276 14.491 0
40 1 10.5511 2.27069 0
41 1 27.5925 3.89573 0
42 1 22.8282 12.1026 0
43 1 1.44495 15.7593 0
44 1 0.0378534 21.3534 0
45 1 24.4 28.9574 0
46 1 2.22033 6.58706 0
47 1 11.8074 16.6555 0
48 1 10.1012 28.6648 0
49 1 28.734 1.39052 0
50 1 7.15628 22.4734 0
51 1 26.2166 15.5013 0
52 1 5.55392 29.7654 0
53 1 5.3788 16.6405 0
54 1 0.455953 19.0786 0
55 1 19.2003 17.9067 0
56 1 3.3699 0.124333 0
57 1 19.4271 16.3933 0
58 1 2.90548 2.4764 0
59 1 18.8375 11.8717 0
60 1 23.9457 28.0688 0
61 1 28.7898 12.7692 0
62 1 22.09 6.07345 0
63 1 20.1856 29.8153 0
64 1 22.6563 19.4378 0
65 1 28.2269 20.9376 0
66 1 9.60176 18.5291 0
67 1 1.17912 24.1945 0
68 1 2.98125 13.4216 0
69 1 18.6428 27.3395 0
70 1 15.5626 19.1976 0
71 1 27.424 25.4981 0
72 1 22.3211 24.7992 0
73 1 7.88004 28.5592 0
74 1 14.8925 8.68186 0
75 1 2.92302 25.1905 0
76 1 18.1691 25.5151 0
77 1 9.56565 23.8893 0
78 1 9.68797 22.8789 0
79 1 15.7706 17.3032 0
80 1 9.10505 3.30079 0
81 1 2.75206 28.1939 0
82 1 28.9379 27.5271 0
83 1 15.7313 7.22262 0
84 1 25.0584 1.17654 0
85 1 14.6899 5.81801 0
86 1 19.8146 24.8521 0
87 1 14.1323 21.0524 0
88 1 24.6444 19.9176 0
89 1 29.0186 16.2955 0
90 1 14.5883 28.2769 0
91 1 10.9193 4.46854 0
92 1 24.9655 14.9855 0
93 1 21.9723 9.1174 0
94 1 5.27583 22.9401 0
95 1 22.2383 0.44445 0
96 1 0.464705 29.794 0
97 1 23.2238 2.22522 0
98 1 12.4472 7.88496 0
99 1 13.5188 12.7152 0
100 1 19.4263 19.1708 0
101 1 10.6186 19.6051 0
102 1 8.62646 0.411152 0
103 1 23.6023 16.2558 0
104 1 19.436 6.54231 0
105 1 15.7665 24.6704 0
106 1 8.91605 17.3901 0
107 1 12.7191 24.2088 0
108 1 7.0382 9.4313 0
109 1 16.6618 15.1577 0
110 1 26.2046 5.37366 0
111 1 11.0951 0.858925 0
112 1 0.598961 12.1189 0
113 1 13.783 14.7052 0
114 1 4.69108 4.77764 0
115 1 24.4024 2.00305 0
116 1 8.781 28.8968 0
117 1 17.088 11.6774 0
118 1 8.79277 16.3609 0
119 1 1.84837 10.0869 0
120 1 18.4574 1.88536 0
121 1 23.2657 25.014 0
122 1 20.2545 12.4812 0
123 1 23.7702 10.1568 0
124 1 29.5938 7.70111 0
125 1 26.5949 12.2121 0
126 1 4.51527 17.7679 0
127 1 16.4235 4.29367 0
128 1 23.62 24.0506 0
129 1 19.6507 14.1639 0
130 1 8.23964 12.1104 0
131 1 18.0299 5.15455 0
132 1 2.32161 22.3783 0
133 1 9.07423 26.5278 0
134 1 9.32322 8.54248 0
135 1 3.33899 27.5434 0
136 1 19.9851 20.2253 0
137 1 24.8908 5.60552 0
138 1 27.8787 13.5545 0
139 1 2.42996 0.55346 0
140 1 0.585164 2.50318 0
141 1 3.30709 15.0578 0
142 1 8.93771 4.68402 0
143 1 20.2507 6.63405 0
144 1 28.5186 22.3796 0
145 1 18.3308 18.7333 0
146 1 8.01936 16.3539 0
147 1 4.37287 3.1428 0
148 1 18.8751 29.4832 0
149 1 15.9464 29.8437 0
150 1 12.0794 10.782 0
151 1 14.2476 16.1204 0
152 1 4.99454 11.0039 0
153 1 25.5316 29.6978 0
154 1 16.916 0.865037 0
155 1 16.8909 2.34221 0
156 1 23.087 13.1294 0
157 1 21.7483 16.118 0
158 1 11.1425 11.4985 0
159 1 11.2815 17.3669 0
160 1 24.0343 26.472 0
161 1 17.583 16.4747 0
162 1 13.3126 25.0772 0
163 1 24.4232 18.7178 0
164 1 21.8006 8.26974 0
165 1 12.4455 22.939 0
166 1 2.87299 9.94076 0
167 1 23.5662 14.7491 0
168 1 25.6825 23.1799 0
169 1 5.64542 12.8389 0
170 1 26.3358 20.1603 0
171 1 29.6016 19.547 0
172 1 5.98186 7.14092 0
173 1 5.32668 3.80051 0
174 1 15.613 4.82079 0
175 1 21.6905 7.37948 0
176 1 18.8153 4.62644 0
177 1 21.7282 17.8834 0
178 1 2.79847 19.5769 0
179 1 22.5573 23.5951 0
180 1 27.8526 18.5031 0
181 1 4.2885 23.8946 0
182 1 2.47958 8.81259 0
183 1 28.3151 11.6791 0
184 1 27.7988 23.5947 0
185 1 14.0032 9.27158 0
186 1 10.181 26.7171 0
187 1 1.14166 14.9828 0
188 1 0.487964 26.1782 0
189 1 25.8534 20.8667 0
190 1 28.2963 25.0258 0
191 1 12.0396 3.99596 0
192 1 12.2233 10.0202 0
193 1 23.6057 22.7675 0
194 1 19.008 2.49245 0
ITEM: TIMESTEP
1740
ITEM: NUMBER OF ATOMS
194
ITEM: BOX BOUNDS pp pp pp
0.0000000000000000e+00 3.0000000000000000e+01
0.0000000000000000e+00 3.0000000000000000e+01
-5.0000000000000000e-01 5.0000000000000000e-01
ITEM: ATOMS id type x y z
1 1 26.6018 2.44463 0
2 1 20.1875 7.4915 0
3 1 16.346 20.6771 0
4 1 17.5133 19.7214 0
5 1 29.2661 29.384 0
6 1 14.687 0.0987792 0
7 1 6.06178 25.6364 0
8 1 21.4068 21.899 0
9 1 17.5275 21.5998 0
10 1 15.405 6.29972 0
11 1 0.685927 13.5961 0
12 1 23.4141 7.09745 0
13 1 20.5923 26.8328 0
14 1 26.0705 1.10852 0
15 1 14.1822 3.24084 0
16 1 9.75207 13.9551 0
17 1 29.049 26.3147 0
18 1 15.2171 13.7271 0
19 1 22.1898 27.0256 0
20 1 10.6578 22.6589 0
21 1 13.8124 27.4169 0
22 1 21.0556 3.16896 0
23 1 3.69113 25.1371 0
24 1 24.6832 7.86195 0
25 1 0.978424 8.33858 0
26 1 22.1683 28.0602 0
27 1 29.2853 17.5183 0
28 1 18.567 0.422973 0
29 1 11.0889 7.42413 0
30 1 23.1732 26.9226 0
31 1 9.69633 1.88958 0
32 1 5.50579 1.27455 0
33 1 11.285 26.8709 0
34 1 2.33189 14.2079 0
35 1 20.9662 29.4093 0
36 1 29.5481 13.8862 0
37 1 21.3465 12.5772 0
38 1 23.487 5.22643 0
39 1 28.7439 14.1295 0
40 1 10.455 2.04665 0
41 1 27.6339 3.80975 0
42 1 22.4607 12.4013 0
43 1 1.71919 15.6811 0
44 1 -0.00567784 21.3931 0
45 1 24.738 28.9368 0
46 1 2.28245 6.64893 0
47 1 11.8429 16.1774 0
48 1 9.91946 28.551 0
49 1 29.2232 1.23968 0
50 1 7.18168 22.2895 0
51 1 26.4588 15.3505 0
52 1 5.41243 0.150187 0
53 1 5.62659 16.064 0
54 1 0.496292 19.1469 0
55 1 19.4055 17.6131 0
56 1 2.96842 29.7939 0
57 1 19.1839 16.1063 0
58 1 2.80642 2.60167 0
59 1 19.3261 11.5621 0
60 1 23.9832 27.7833 0
61 1 28.8725 13.0448 0
62 1 22.4754 6.34287 0
63 1 20.0304 29.8706 0
64 1 22.8255 19.4574 0
65 1 28.0015 20.6767 0
66 1 9.37056 18.7865 0
67 1 1.54979 24.2021 0
68 1 3.252 13.6424 0
69 1 18.8476 26.9965 0
70 1 15.8804 19.5054 0
71 1 27.3408 25.4267 0
72 1 22.208 24.4957 0
73 1 7.60931 28.5778 0
74 1 14.981 8.53503 0
75 1 2.64484 25.0347 0
76 1 18.4526 25.6355 0
77 1 9.43282 24.0674 0
78 1 9.82022 22.7936 0
79 1 15.946 17.5372 0
80 1 9.43552 3.83566 0
81 1 2.8515 28.7702 0
82 1 28.9111 27.9746 0
83 1 16.1627 7.34158 0
84 1 25.2099 1.15079 0
85 1 14.6848 5.28926 0
86 1 19.6386 25.0254 0
87 1 14.1507 21.0891 0
88 1 24.8313 19.9841 0
89 1 28.628 16.5818 0
90 1 14.4421 28.3395 0
91 1 10.6648 4.29745 0
92 1 24.9071 15.0785 0
93 1 22.0507 9.13002 0
94 1 5.17467 22.6456 0
95 1 21.9646 0.733852 0
96 1 0.249741 0.273396 0
97 1 22.9369 2.62215 0
98 1 12.4048 7.96044 0
99 1 13.279 12.3212 0
100 1 19.1751 18.8763 0
101 1 10.7728 19.5349 0
102 1 8.61863 0.414762 0
103 1 23.693 16.4235 0
104 1 19.4532 6.46852 0
105 1 15.764 24.9994 0
106 1 9.00822 17.5624 0
107 1 12.541 24.2321 0
108 1 6.99999 9.61966 0
109 1 16.6626 14.6731 0
110 1 26.1389 4.7149 0
111 1 11.1393 0.858194 0
112 1 0.634387 11.8191 0
113 1 14.1004 14.3135 0
114 1 5.048 4.77379 0
115 1 24.464 1.81573 0
116 1 8.91309 29.365 0
117 1 16.9775 11.126 0
118 1 9.23207 16.6589 0
119 1 1.78623 9.79496 0
120 1 18.4144 1.43397 0
121 1 23.3747 25.2434 0
122 1 20.4616 12.3511 0
123 1 23.8612 10.0788 0
124 1 29.373 7.53758 0
125 1 26.4339 12.2294 0
126 1 4.86532 17.4794 0
127 1 16.3172 4.37551 0
128 1 23.6083 24.3339 0
129 1 19.98 14.1557 0
130 1 7.91909 12.306 0
131 1 17.7112 5.22929 0
132 1 2.50758 22.4035 0
133 1 8.71288 26.1276 0
134 1 8.99049 8.9007 0
135 1 3.13763 27.2863 0
136 1 20.1149 20.352 0
137 1 24.7449 5.71688 0
138 1 28.0314 13.2663 0
139 1 2.22784 0.521744 0
140 1 0.565195 2.5829 0
141 1 3.53434 15.1261 0
142 1 9.13446 4.7679 0
143 1 20.7 6.62081 0
144 1 28.5861 22.1033 0
145 1 18.3892 19.0049 0
146 1 7.73644 16.3293 0
147 1 4.06433 3.04025 0
148 1 19.0188 29.2065 0
149 1 16.0755 29.6724 0
150 1 12.07 10.8327 0
151 1 14.4593 15.9475 0
152 1 5.35227 10.5303 0
153 1 25.5623 29.4561 0
154 1 16.9115 1.09417 0
155 1 16.8702 2.27866 0
156 1 22.849 13.4611 0
157 1 22.0396 16.2357 0
158 1 11.5789 11.5549 0
159 1 11.2869 17.695 0
160 1 23.954 26.5297 0
161 1 17.1504 16.2066 0
162 1 13.0826 25.3365 0
163 1 23.8455 18.9728 0
164 1 21.3422 8.08824 0
165 1 12.5158 23.3359 0
166 1 2.68122 10.1185 0
167 1 23.2489 14.8372 0
168 1 25.868 23.1547 0
169 1 5.61988 12.9682 0
170 1 26.3138 20.1815 0
171 1 29.3863 19.3113 0
172 1 6.41187 7.3226 0
173 1 5.46919 3.59835 0
174 1 15.5633 4.99212 0
175 1 21.7205 7.14316 0
176 1 18.6452 4.8721 0
177 1 21.6353 18.0504 0
178 1 2.83435 19.7405 0
179 1 22.4195 23.6801 0
180 1 28.0456 18.5375 0
181 1 4.43604 24.4112 0
182 1 2.71985 8.74562 0
183 1 28.329 11.3011 0
184 1 28.0482 23.378 0
185 1 14.0059 9.57388 0
186 1 9.97924 26.6581 0
187 1 1.14902 14.5238 0
188 1 0.496036 26.1843 0
189 1 25.4268 20.9415 0
190 1 28.4002 24.9273 0
191 1 12.3357 3.74832 0
192 1 12.2299 9.43761 0
193 1 23.6071 22.9068 0
194 1 19.152 2.48916 0
ITEM: TIMESTEP
1755
ITEM: NUMBER OF ATOMS
194
ITEM: BOX BOUNDS pp pp pp
0.0000000000000000e+00 3.0000000000000000e+01
0.0000000000000000e+00 3.0000000000000000e+01
-5.0000000000000000e-01 5.0000000000000000e-01
ITEM: ATOMS id type x y z
1 1 26.6621 2.85102 0
2 1 19.8118 7.49397 0
3 1 16.081 20.5336 0
4 1 16.9915 20.0619 0
5 1 29.7776 29.2337 0
6 1 14.656 0.139429 0
7 1 5.84637 25.7522 0
8 1 21.2552 21.8835 0
9 1 17.3866 22.32 0
10 1 15.1648 6.12473 0
11 1 0.584853 13.5105 0
12 1 23.4671 7.13081 0
13 1 20.6216 27.0217 0
14 1 26.2888 1.02696 0
15 1 13.9941 3.33268 0
16 1 9.89469 14.1601 0
17 1 28.9553 26.2883 0
18 1 15.2829 13.6116 0
19 1 21.9672 26.9398 0
20 1 10.8945 23.3065 0
21 1 13.5914 27.2279 0
22 1 20.7819 3.16168 0
23 1 3.68806 25.5924 0
24 1 24.3133 8.22458 0
25 1 1.02162 8.16184 0
26 1 22.6608 28.2812 0
27 1 29.1339 17.3326 0
28 1 18.4907 0.180597 0
29 1 11.0911 7.62704 0
30 1 23.0252 27.2233 0
31 1 9.52403 2.21116 0
32 1 5.58254 1.46577 0
33 1 10.8534 27.131 0
34 1 2.54956 14.3805 0
35 1 20.9506 29.0835 0
36 1 29.7463 13.7814 0
37 1 21.3363 12.6751 0
38 1 23.5648 4.56651 0
39 1 28.5246 13.9251 0
40 1 11.04 1.94691 0
41 1 27.6735 3.7232 0
42 1 22.1905 12.696 0
43 1 2.03745 15.7015 0
44 1 29.9486 21.4333 0
45 1 24.8856 29.0167 0
46 1 2.34446 6.71126 0
47 1 11.879 15.699 0
48 1 9.73394 28.4394 0
49 1 29.5607 1.23968 0
50 1 7.20671 22.1057 0
51 1 26.6991 15.1993 0
52 1 5.26937 0.529952 0
53 1 5.87367 15.489 0
54 1 0.545027 19.2114 0
55 1 19.6091 17.3233 0
56 1 2.57456 29.978 0
57 1 18.9408 15.8214 0
58 1 2.71083 2.72798 0
59 1 19.8179 11.255 0
60 1 23.9706 27.275 0
61 1 29.2504 13.1281 0
62 1 22.8336 6.58271 0
63 1 19.7388 29.9652 0
64 1 22.699 19.6447 0
65 1 27.7765 20.4172 0
66 1 9.13967 19.0396 0
67 1 1.90793 24.191 0
68 1 3.52968 13.8616 0
69 1 19.0532 26.6517 0
70 1 16.1729 19.578 0
71 1 27.2582 25.3555 0
72 1 21.9849 24.6567 0
73 1 7.34035 28.5976 0
74 1 15.0681 8.38946 0
75 1 2.30699 24.9121 0
76 1 18.7363 25.7582 0
77 1 9.30131 24.2419 0
78 1 9.66876 22.7546 0
79 1 16.1218 17.7709 0
80 1 9.70074 4.20427 0
81 1 2.98616 28.7913 0
82 1 28.8856 28.4231 0
83 1 16.6205 7.5463 0
84 1 25.1127 1.06376 0
85 1 14.5287 4.78948 0
86 1 19.463 25.1988 0
87 1 14.1694 21.1257 0
88 1 25.0171 20.04 0
89 1 28.2334 16.8661 0
90 1 14.312 28.4237 0
91 1 10.5496 4.13138 0
92 1 24.8488 15.1723 0
93 1 22.1764 9.27331 0
94 1 5.07346 22.3516 0
95 1 21.6898 1.02226 0
96 1 0.184441 0.599159 0
97 1 22.6509 3.0184 0
98 1 12.3605 8.02684 0
99 1 13.0379 11.9267 0
100 1 19.4788 18.4909 0
101 1 10.9256 19.4632 0
102 1 8.57552 0.493156 0
103 1 23.7824 16.5889 0
104 1 19.4069 6.38748 0
105 1 15.7614 25.3284 0
106 1 9.0768 17.9023 0
107 1 12.3573 24.524 0
108 1 6.96115 9.80818 0
109 1 16.6628 14.1895 0
110 1 26.0729 4.05601 0
111 1 11.1812 0.861448 0
112 1 0.669541 11.5206 0
113 1 14.4161 13.9234 0
114 1 5.40645 4.76472 0
115 1 24.4437 1.7033 0
116 1 9.08343 29.7554 0
117 1 16.8671 10.5745 0
118 1 9.72248 16.7957 0
119 1 1.56844 9.46789 0
120 1 18.3253 1.09487 0
121 1 23.4138 25.712 0
122 1 20.5 12.1702 0
123 1 23.9519 10.0005 0
124 1 29.153 7.37447 0
125 1 26.2737 12.2468 0
126 1 5.21625 17.1894 0
127 1 16.2911 4.39676 0
128 1 23.6592 24.3757 0
129 1 20.3096 14.1467 0
130 1 7.59849 12.5017 0
131 1 17.3093 5.34277 0
132 1 2.6934 22.429 0
133 1 8.35525 25.7286 0
134 1 8.6575 9.25899 0
135 1 2.93922 27.0258 0
136 1 20.244 20.4776 0
137 1 24.596 5.82697 0
138 1 27.8446 13.1017 0
139 1 1.9797 0.533788 0
140 1 0.544993 2.66206 0
141 1 3.75863 15.1905 0
142 1 9.25873 5.0116 0
143 1 21.1761 6.3557 0
144 1 28.653 21.8278 0
145 1 18.183 19.0419 0
146 1 7.42746 16.3036 0
147 1 3.75486 2.93783 0
148 1 19.1653 28.9362 0
149 1 16.2021 29.5031 0
150 1 12.3188 10.5766 0
151 1 14.6708 15.7733 0
152 1 5.71089 10.0565 0
153 1 25.9455 29.4005 0
154 1 16.9096 1.31407 0
155 1 16.8499 2.22283 0
156 1 22.611 13.7959 0
157 1 22.3326 16.3536 0
158 1 11.7541 11.9424 0
159 1 11.2911 18.024 0
160 1 24.2147 26.4248 0
161 1 16.7173 15.9374 0
162 1 12.8507 25.5921 0
163 1 23.5655 19.0622 0
164 1 20.8241 7.81765 0
165 1 12.593 23.4679 0
166 1 2.6465 10.3235 0
167 1 22.9319 14.9244 0
168 1 26.0535 23.1293 0
169 1 5.59437 13.0973 0
170 1 26.3264 20.159 0
171 1 29.16 19.0777 0
172 1 6.8419 7.50441 0
173 1 5.60748 3.39972 0
174 1 15.5885 5.20236 0
175 1 21.8374 6.92112 0
176 1 18.5571 5.07895 0
177 1 21.5429 18.2174 0
178 1 2.87012 19.9041 0
179 1 22.4037 23.3015 0
180 1 28.242 18.5718 0
181 1 4.60248 24.9076 0
182 1 2.95694 8.68477 0
183 1 28.343 10.9248 0
184 1 28.2993 23.1596 0
185 1 14.0099 9.87383 0
186 1 9.77828 26.599 0
187 1 1.24023 14.1044 0
188 1 0.500978 26.1905 0
189 1 24.9652 21.068 0
190 1 28.5047 24.8289 0
191 1 12.6311 3.50091 0
192 1 12.2405 8.83918 0
193 1 23.6051 23.0521 0
194 1 19.3169 2.51036 0
ITEM: TIMESTEP
1770
ITEM: NUMBER OF ATOMS
194
ITEM: BOX BOUNDS pp pp pp
0.0000000000000000e+00 3.0000000000000000e+01
0.0000000000000000e+00 3.0000000000000000e+01
-5.0000000000000000e-01 5.0000000000000000e-01
ITEM: ATOMS id type x y z
1 1 26.7961 3.21103 0
2 1 19.404 7.48494 0
3 1 15.7966 20.9184 0
4 1 16.578 20.414 0
5 1 0.286735 29.084 0
6 1 14.6262 0.178582 0
7 1 5.62907 25.8668 0
8 1 21.1035 21.8676 0
9 1 17.2454 23.0398 0
10 1 14.8956 5.98936 0
11 1 0.820084 13.0291 0
12 1 23.8076 7.41356 0
13 1 20.6533 27.2101 0
14 1 26.5211 0.943871 0
15 1 13.8088 3.42741 0
16 1 10.0374 14.3652 0
17 1 28.8627 26.2596 0
18 1 15.5506 13.4364 0
19 1 21.7344 26.8541 0
20 1 11.1574 23.955 0
21 1 13.372 27.0411 0
22 1 20.507 3.15333 0
23 1 3.68198 26.0484 0
24 1 23.9407 8.58472 0
25 1 1.06651 7.98804 0
26 1 23.1538 28.5027 0
27 1 29.0046 17.1628 0
28 1 18.457 29.7092 0
29 1 11.0988 7.83203 0
30 1 22.6326 27.4479 0
31 1 9.30538 2.52774 0
32 1 5.67926 1.71085 0
33 1 10.4166 27.3901 0
34 1 2.76177 14.5583 0
35 1 20.9325 28.7588 0
36 1 29.6395 14.1811 0
37 1 21.0221 12.8285 0
38 1 23.6429 3.90739 0
39 1 28.2997 13.7452 0
40 1 11.6726 1.85816 0
41 1 27.7091 3.63471 0
42 1 22.3223 12.9926 0
43 1 2.3574 15.7171 0
44 1 29.8987 21.4744 0
45 1 24.8092 28.986 0
46 1 2.40623 6.77426 0
47 1 11.9149 15.2209 0
48 1 9.54773 28.3287 0
49 1 29.3835 1.75612 0
50 1 7.23152 21.9219 0
51 1 26.9389 15.048 0
52 1 5.10625 0.856569 0
53 1 6.12097 14.9151 0
54 1 0.589859 19.2756 0
55 1 19.8118 17.0353 0
56 1 2.49385 0.162477 0
57 1 18.6982 15.5377 0
58 1 2.57234 2.85012 0
59 1 20.3092 10.9434 0
60 1 24.1322 27.0789 0
61 1 29.3555 12.8309 0
62 1 22.9705 6.54847 0
63 1 19.4441 0.0559091 0
64 1 22.2056 20.0455 0
65 1 27.5499 20.1575 0
66 1 8.90924 19.2919 0
67 1 2.07668 23.8213 0
68 1 3.80991 14.0842 0
69 1 19.388 26.5821 0
70 1 16.3783 19.1081 0
71 1 27.18 25.2828 0
72 1 21.7626 24.8245 0
73 1 7.07194 28.6178 0
74 1 15.1555 8.24399 0
75 1 2.16131 25.149 0
76 1 18.6754 25.7877 0
77 1 9.17037 24.4146 0
78 1 9.49157 22.7179 0
79 1 16.2978 18.0056 0
80 1 9.49703 4.35988 0
81 1 3.15182 28.4883 0
82 1 28.8639 28.8747 0
83 1 17.0771 7.75084 0
84 1 25.131 0.855341 0
85 1 14.3152 4.29108 0
86 1 19.5048 25.191 0
87 1 14.1885 21.1621 0
88 1 25.2046 20.0741 0
89 1 27.8156 17.1387 0
90 1 14.1804 28.5057 0
91 1 11.0147 3.96062 0
92 1 24.7901 15.2668 0
93 1 22.3022 9.41597 0
94 1 4.97237 22.0577 0
95 1 21.4147 1.31054 0
96 1 0.632964 0.404875 0
97 1 22.3651 3.41523 0
98 1 12.3992 7.52258 0
99 1 12.7924 11.53 0
100 1 19.8128 18.0963 0
101 1 11.0782 19.3884 0
102 1 8.40976 0.777725 0
103 1 23.8691 16.7526 0
104 1 19.3625 6.30911 0
105 1 15.7588 25.6573 0
106 1 9.14613 18.2444 0
107 1 12.165 24.9177 0
108 1 6.92768 9.99845 0
109 1 16.6604 13.7058 0
110 1 25.9367 3.44464 0
111 1 11.2216 0.859182 0
112 1 0.704574 11.2225 0
113 1 14.5326 13.5948 0
114 1 5.76549 4.75164 0
115 1 24.2939 1.71239 0
116 1 9.37784 29.937 0
117 1 16.7567 10.0231 0
118 1 10.2129 16.9311 0
119 1 1.35148 9.13772 0
120 1 18.1952 0.982337 0
121 1 23.4376 26.1764 0
122 1 20.4425 11.9419 0
123 1 24.0423 9.92097 0
124 1 28.9333 7.21151 0
125 1 26.1144 12.2647 0
126 1 5.5676 16.8985 0
127 1 16.2773 4.41052 0
128 1 23.7073 24.4133 0
129 1 20.6399 14.1366 0
130 1 7.27757 12.6974 0
131 1 16.9059 5.45328 0
132 1 2.87906 22.455 0
133 1 7.99953 25.3296 0
134 1 8.3235 9.61754 0
135 1 2.74188 26.7643 0
136 1 20.3737 20.6039 0
137 1 24.4448 5.93689 0
138 1 27.647 12.9287 0
139 1 1.38779 0.869645 0
140 1 0.524285 2.74 0
141 1 3.97908 15.2493 0
142 1 9.27174 5.47205 0
143 1 21.3699 5.87569 0
144 1 28.7223 21.5538 0
145 1 17.9452 19.0868 0
146 1 7.11787 16.2777 0
147 1 3.4888 2.8396 0
148 1 19.313 28.6729 0
149 1 16.3276 29.3347 0
150 1 12.5708 10.3195 0
151 1 14.8829 15.5984 0
152 1 6.06512 9.58043 0
153 1 26.5523 29.4574 0
154 1 16.9256 1.33558 0
155 1 16.8158 2.36391 0
156 1 22.3692 14.1212 0
157 1 22.6291 16.4704 0
158 1 11.9317 12.3313 0
159 1 11.2939 18.3553 0
160 1 24.5655 26.0862 0
161 1 16.2835 15.6677 0
162 1 12.6184 25.8465 0
163 1 23.6527 18.9383 0
164 1 20.3405 7.54975 0
165 1 12.6779 23.4997 0
166 1 2.61122 10.5261 0
167 1 22.6166 15.0196 0
168 1 26.239 23.1038 0
169 1 5.56899 13.2266 0
170 1 26.336 20.1376 0
171 1 29.1141 18.9368 0
172 1 7.27198 7.68642 0
173 1 5.74446 3.20421 0
174 1 15.6918 5.38019 0
175 1 22.1692 6.9457 0
176 1 18.4674 5.28798 0
177 1 21.4507 18.3846 0
178 1 2.90578 20.0677 0
179 1 22.3954 22.9161 0
180 1 28.2624 18.5105 0
181 1 4.77008 25.4051 0
182 1 3.1917 8.626 0
183 1 28.3571 10.5488 0
184 1 28.5514 22.9386 0
185 1 14.013 10.1733 0
186 1 9.58035 26.542 0
187 1 1.59387 13.9416 0
188 1 0.503894 26.1966 0
189 1 24.5071 21.2152 0
190 1 28.6058 24.7332 0
191 1 12.9243 3.2527 0
192 1 12.1631 8.81094 0
193 1 23.5983 23.203 0
194 1 19.483 2.53129 0
ITEM: TIMESTEP
1785
ITEM: NUMBER OF ATOMS
194
ITEM: BOX BOUNDS pp pp pp
0.0000000000000000e+00 3.0000000000000000e+01
0.0000000000000000e+00 3.0000000000000000e+01
-5.0000000000000000e-01 5.0000000000000000e-01
ITEM: ATOMS id type x y z
1 1 27.0051 3.35174 0
2 1 18.8846 7.46237 0
3 1 15.3916 21.3774 0
4 1 16.2934 20.7007 0
5 1 0.793964 28.9378 0
6 1 14.5966 0.216433 0
7 1 5.66854 26.0957 0
8 1 20.9516 21.8495 0
9 1 17.1043 23.7596 0
10 1 14.5876 5.89316 0
11 1 1.04398 12.5375 0
12 1 24.1714 7.71966 0
13 1 20.6813 27.4006 0
14 1 26.7496 0.858134 0
15 1 13.7102 3.30861 0
16 1 10.1804 14.5704 0
17 1 28.7709 26.2285 0
18 1 15.8594 13.2288 0
19 1 21.4969 26.7635 0
20 1 11.4196 24.6005 0
21 1 13.1514 26.8529 0
22 1 20.2477 3.15796 0
23 1 3.67863 26.503 0
24 1 23.5667 8.94363 0
25 1 1.11264 7.81377 0
26 1 23.6475 28.7248 0
27 1 28.8745 16.997 0
28 1 18.4147 29.2296 0
29 1 11.1128 8.03853 0
30 1 22.2495 27.672 0
31 1 9.08695 2.8447 0
32 1 5.79311 1.98928 0
33 1 9.98384 27.6386 0
34 1 2.97422 14.7379 0
35 1 20.9126 28.4316 0
36 1 29.542 14.6018 0
37 1 20.7174 13.0043 0
38 1 23.7183 3.24718 0
39 1 28.0927 13.5795 0
40 1 12.3061 1.77594 0
41 1 27.9458 3.62391 0
42 1 22.4622 13.2902 0
43 1 2.6797 15.7285 0
44 1 29.8455 21.5162 0
45 1 24.7325 28.9555 0
46 1 2.46754 6.83817 0
47 1 11.9505 14.7426 0
48 1 9.35373 28.226 0
49 1 29.2085 2.27385 0
50 1 7.25626 21.7382 0
51 1 27.1791 14.8962 0
52 1 4.92604 1.15257 0
53 1 6.36813 14.3412 0
54 1 0.632024 19.3394 0
55 1 20.0136 16.7296 0
56 1 2.43765 0.324789 0
57 1 18.456 15.2544 0
58 1 2.27995 2.97149 0
59 1 20.796 10.6029 0
60 1 24.2909 26.9635 0
61 1 29.4464 12.5141 0
62 1 23.2806 6.40102 0
63 1 19.1586 0.148771 0
64 1 21.7119 20.4454 0
65 1 27.3228 19.8969 0
66 1 8.67726 19.5517 0
67 1 2.23239 23.4142 0
68 1 4.08818 14.3086 0
69 1 19.8216 26.6906 0
70 1 16.6142 18.9389 0
71 1 27.1044 25.2093 0
72 1 21.5409 24.9923 0
73 1 6.80364 28.638 0
74 1 15.2432 8.09848 0
75 1 2.03082 25.4238 0
76 1 18.3904 25.7478 0
77 1 9.03791 24.5879 0
78 1 9.31452 22.6825 0
79 1 16.4362 17.9309 0
80 1 9.2974 4.49977 0
81 1 3.31687 28.1854 0
82 1 28.8452 29.3271 0
83 1 17.5334 7.95549 0
84 1 25.1567 0.64311 0
85 1 14.3314 4.11302 0
86 1 19.6755 25.0768 0
87 1 14.2097 21.1984 0
88 1 25.3847 20.11 0
89 1 27.3986 17.4132 0
90 1 14.0484 28.5876 0
91 1 11.4823 3.78946 0
92 1 24.7309 15.3622 0
93 1 22.4297 9.55831 0
94 1 4.87119 21.7638 0
95 1 21.1391 1.59928 0
96 1 0.875699 0.00849301 0
97 1 22.0817 3.813 0
98 1 12.449 6.9238 0
99 1 12.5439 11.1314 0
100 1 20.1486 17.7196 0
101 1 11.2069 19.4547 0
102 1 8.24145 1.06696 0
103 1 23.9518 16.9144 0
104 1 19.317 6.23363 0
105 1 15.7562 25.9863 0
106 1 9.21861 18.5781 0
107 1 11.9598 25.2803 0
108 1 6.94951 10.2131 0
109 1 16.7235 13.2287 0
110 1 25.5243 2.97455 0
111 1 11.2611 0.851217 0
112 1 0.739809 10.9251 0
113 1 14.5425 13.2932 0
114 1 6.12454 4.73634 0
115 1 24.1409 1.72491 0
116 1 9.67556 0.112722 0
117 1 16.6463 9.47138 0
118 1 10.703 17.0684 0
119 1 1.13507 8.80808 0
120 1 18.0623 0.870515 0
121 1 23.4274 26.6232 0
122 1 20.3716 11.7243 0
123 1 24.1316 9.83796 0
124 1 28.7139 7.04861 0
125 1 25.9563 12.283 0
126 1 5.92018 16.6066 0
127 1 16.2654 4.429 0
128 1 23.7543 24.4477 0
129 1 20.9731 14.1225 0
130 1 6.95567 12.8936 0
131 1 16.5847 5.56484 0
132 1 3.06385 22.4827 0
133 1 7.64621 24.9293 0
134 1 7.9862 9.97669 0
135 1 2.54532 26.5005 0
136 1 20.5058 20.7326 0
137 1 24.2907 6.04887 0
138 1 27.4374 12.7401 0
139 1 0.975785 1.42526 0
140 1 0.502186 2.81582 0
141 1 4.19516 15.3058 0
142 1 9.27848 5.94741 0
143 1 21.5599 5.39356 0
144 1 28.7936 21.2825 0
145 1 17.7047 19.1315 0
146 1 6.80636 16.2514 0
147 1 3.37647 2.74192 0
148 1 19.4604 28.4161 0
149 1 16.4527 29.167 0
150 1 12.826 10.0645 0
151 1 15.0726 15.4232 0
152 1 6.36741 9.07895 0
153 1 27.1576 29.5169 0
154 1 16.9535 1.27101 0
155 1 16.7747 2.58928 0
156 1 22.0841 14.2957 0
157 1 22.9299 16.5851 0
158 1 12.1119 12.7173 0
159 1 11.3195 18.5449 0
160 1 24.9485 25.6869 0
161 1 15.8723 15.3972 0
162 1 12.4031 26.1342 0
163 1 23.7393 18.8152 0
164 1 19.968 7.28833 0
165 1 12.7603 23.5348 0
166 1 2.57512 10.7277 0
167 1 22.3424 15.2677 0
168 1 26.4247 23.0784 0
169 1 5.54458 13.3569 0
170 1 26.3521 20.1169 0
171 1 29.3324 18.9316 0
172 1 7.70199 7.86893 0
173 1 5.88109 3.00823 0
174 1 15.7502 5.51113 0
175 1 22.3102 7.06587 0
176 1 18.3782 5.50047 0
177 1 21.3574 18.5519 0
178 1 2.94134 20.2314 0
179 1 22.3911 22.5318 0
180 1 28.0206 18.3094 0
181 1 4.67608 25.7909 0
182 1 3.42539 8.56746 0
183 1 28.3713 10.1731 0
184 1 28.8042 22.7143 0
185 1 14.0124 10.4731 0
186 1 9.38533 26.4887 0
187 1 1.96105 13.7906 0
188 1 0.505775 26.2024 0
189 1 24.0507 21.3602 0
190 1 28.7052 24.6397 0
191 1 12.9021 2.89892 0
192 1 12.0688 8.8778 0
193 1 23.587 23.3573 0
194 1 19.634 2.53849 0
ITEM: TIMESTEP
1800
ITEM: NUMBER OF ATOMS
194
ITEM: BOX BOUNDS pp pp pp
0.0000000000000000e+00 3.0000000000000000e+01
0.0000000000000000e+00 3.0000000000000000e+01
-5.0000000000000000e-01 5.0000000000000000e-01
ITEM: ATOMS id type x y z
1 1 26.9846 3.41009 0
2 1 18.362 7.41755 0
3 1 14.9807 21.8466 0
4 1 16.0191 20.9794 0
5 1 1.30638 28.7357 0
6 1 14.5669 0.253097 0
7 1 5.91213 26.4084 0
8 1 20.8016 21.8299 0
9 1 16.9632 24.4795 0
10 1 14.2825 5.79552 0
11 1 1.26724 12.0463 0
12 1 24.5323 8.02642 0
13 1 20.6622 27.4349 0
14 1 26.9773 0.768834 0
15 1 13.6821 3.02571 0
16 1 10.3242 14.7757 0
17 1 28.6796 26.1953 0
18 1 15.8563 13.0124 0
19 1 21.2768 26.6609 0
20 1 11.4178 24.8806 0
21 1 13.0557 26.7344 0
22 1 20.1675 3.34867 0
23 1 3.67788 26.955 0
24 1 23.2146 9.2737 0
25 1 1.1628 7.57866 0
26 1 23.9216 28.9192 0
27 1 28.741 16.8338 0
28 1 18.3744 28.7494 0
29 1 11.1315 8.24738 0
30 1 21.8635 27.8938 0
31 1 8.86854 3.16266 0
32 1 5.87982 2.06462 0
33 1 9.80224 27.6529 0
34 1 3.20437 14.8703 0
35 1 20.9501 28.3119 0
36 1 29.4434 15.0215 0
37 1 20.4141 13.1804 0
38 1 23.7933 2.5878 0
39 1 27.8944 13.425 0
40 1 12.9403 1.63094 0
41 1 28.4126 3.69365 0
42 1 22.6024 13.5821 0
43 1 2.99192 15.7836 0
44 1 29.7978 21.5616 0
45 1 24.8748 28.9517 0
46 1 2.52785 6.90336 0
47 1 11.9852 14.2635 0
48 1 8.90627 28.3528 0
49 1 29.0365 2.79365 0
50 1 7.28106 21.5545 0
51 1 27.4203 14.7426 0
52 1 4.74794 1.45061 0
53 1 6.60679 13.8121 0
54 1 0.670195 19.4021 0
55 1 20.2089 16.3784 0
56 1 2.37885 0.486981 0
57 1 18.2139 14.9714 0
58 1 1.96758 3.09399 0
59 1 21.2823 10.261 0
60 1 24.5535 26.8937 0
61 1 29.5379 12.1984 0
62 1 23.4037 6.30464 0
63 1 18.8707 0.242133 0
64 1 21.3623 20.8283 0
65 1 27.1745 19.6075 0
66 1 8.44494 19.8132 0
67 1 2.38873 23.0062 0
68 1 4.35682 14.471 0
69 1 20.2272 26.7601 0
70 1 16.7213 19.1399 0
71 1 27.0301 25.1355 0
72 1 21.3186 25.161 0
73 1 6.53534 28.6582 0
74 1 15.3315 7.9532 0
75 1 1.85918 25.6387 0
76 1 18.1092 25.7074 0
77 1 8.90279 24.762 0
78 1 9.13725 22.6477 0
79 1 16.5236 17.467 0
80 1 9.09769 4.64144 0
81 1 3.48183 27.8809 0
82 1 28.8256 29.7797 0
83 1 17.9747 8.17886 0
84 1 25.1819 0.432145 0
85 1 14.5666 4.23181 0
86 1 19.8447 24.9656 0
87 1 14.227 21.2312 0
88 1 25.4598 20.1468 0
89 1 26.9642 17.6698 0
90 1 13.9166 28.6701 0
91 1 11.9511 3.61709 0
92 1 24.6709 15.4586 0
93 1 22.5299 9.7182 0
94 1 4.76961 21.4701 0
95 1 20.8621 1.8894 0
96 1 1.07102 29.6146 0
97 1 21.8024 4.1846 0
98 1 12.4978 6.32635 0
99 1 12.296 10.7342 0
100 1 20.4929 17.39 0
101 1 11.2948 19.7957 0
102 1 8.07446 1.35581 0
103 1 24.0579 17.0848 0
104 1 19.2672 6.15861 0
105 1 15.7537 26.3153 0
106 1 9.29217 18.9099 0
107 1 11.8998 25.7564 0
108 1 6.86769 10.4501 0
109 1 17.0938 12.7612 0
110 1 25.1104 2.50462 0
111 1 11.302 0.845209 0
112 1 0.775789 10.6292 0
113 1 14.5569 12.9916 0
114 1 6.48346 4.71994 0
115 1 23.9908 1.73511 0
116 1 9.97308 0.289123 0
117 1 16.5361 8.91849 0
118 1 11.1935 17.208 0
119 1 0.916075 8.53871 0
120 1 17.9305 0.755921 0
121 1 23.3137 27.0234 0
122 1 20.3027 11.5116 0
123 1 24.2271 9.76252 0
124 1 28.4945 6.88573 0
125 1 25.8004 12.302 0
126 1 5.83693 16.4893 0
127 1 16.2526 4.45503 0
128 1 23.803 24.4888 0
129 1 21.1142 14.0433 0
130 1 6.63701 13.0438 0
131 1 16.7143 5.70091 0
132 1 3.24842 22.5115 0
133 1 7.29585 24.5283 0
134 1 7.75645 10.3149 0
135 1 2.39021 26.2978 0
136 1 20.4935 20.8802 0
137 1 24.3361 6.10631 0
138 1 27.2182 12.5411 0
139 1 0.607816 2.03239 0
140 1 0.477586 2.89276 0
141 1 4.4115 15.4241 0
142 1 9.28531 6.41959 0
143 1 21.7472 4.93832 0
144 1 28.8577 21.0121 0
145 1 17.6437 19.1965 0
146 1 6.93032 16.0499 0
147 1 3.28308 2.64253 0
148 1 19.6092 28.1611 0
149 1 16.5782 28.9996 0
150 1 13.0842 9.80798 0
151 1 14.6974 15.2694 0
152 1 6.66649 8.57517 0
153 1 27.7633 29.5798 0
154 1 16.9836 1.20893 0
155 1 16.734 2.81142 0
156 1 21.9657 14.4515 0
157 1 23.2065 16.688 0
158 1 12.293 13.1023 0
159 1 11.3847 18.4575 0
160 1 25.3283 25.2904 0
161 1 16.026 15.1046 0
162 1 12.1832 26.6035 0
163 1 23.8259 18.6916 0
164 1 19.6147 7.02782 0
165 1 12.8415 23.571 0
166 1 2.5382 10.9293 0
167 1 22.0923 15.6043 0
168 1 26.6106 23.0532 0
169 1 5.52431 13.4898 0
170 1 26.3945 20.1236 0
171 1 29.5527 18.9266 0
172 1 8.13138 8.05223 0
173 1 6.04269 3.01453 0
174 1 15.3561 5.60974 0
175 1 22.4394 7.19182 0
176 1 18.2907 5.71573 0
177 1 21.262 18.7181 0
178 1 2.9769 20.3953 0
179 1 22.3882 22.148 0
180 1 27.8009 18.1257 0
181 1 4.3738 26.0958 0
182 1 3.65855 8.50868 0
183 1 28.3856 9.79732 0
184 1 29.0584 22.4856 0
185 1 14.0056 10.7718 0
186 1 9.19252 26.4401 0
187 1 2.32993 13.6407 0
188 1 0.507948 26.2077 0
189 1 23.5945 21.5051 0
190 1 28.8035 24.548 0
191 1 12.5869 2.47538 0
192 1 11.9732 8.94405 0
193 1 23.5719 23.5039 0
194 1 19.6077 2.35822 0
ITEM: TIMESTEP
1815
ITEM: NUMBER OF ATOMS
194
ITEM: BOX BOUNDS pp pp pp
0.0000000000000000e+00 3.0000000000000000e+01
0.0000000000000000e+00 3.0000000000000000e+01
-5.0000000000000000e-01 5.0000000000000000e-01
ITEM: ATOMS id type x y z
1 1 26.9662 3.46864 0
2 1 17.9636 7.15367 0
3 1 14.6131 22.3461 0
4 1 15.741 21.2603 0
5 1 1.85576 28.3635 0
6 1 14.5365 0.28895 0
7 1 6.15349 26.7207 0
8 1 20.6689 21.847 0
9 1 16.8234 25.2008 0
10 1 13.967 5.69722 0
11 1 1.4903 11.5521 0
12 1 24.8917 8.33402 0
13 1 20.8001 27.5989 0
14 1 27.2064 0.676442 0
15 1 13.657 2.7453 0
16 1 10.4691 14.9807 0
17 1 28.5888 26.1604 0
18 1 15.8357 12.7965 0
19 1 21.1658 26.5249 0
20 1 11.3194 25.0104 0
21 1 13.2735 26.7258 0
22 1 20.1176 3.57382 0
23 1 3.70846 27.0028 0
24 1 23.2499 9.34554 0
25 1 1.22655 7.28148 0
26 1 23.8255 29.0773 0
27 1 28.6061 16.6719 0
28 1 18.3377 28.2701 0
29 1 11.138 8.44641 0
30 1 21.6563 28.0029 0
31 1 8.65037 3.48291 0
32 1 5.92621 1.87911 0
33 1 9.67998 27.6101 0
34 1 3.46992 14.8837 0
35 1 20.9146 28.6689 0
36 1 29.3441 15.4415 0
37 1 20.1002 13.3463 0
38 1 23.7576 2.45865 0
39 1 27.6964 13.2754 0
40 1 13.61 1.29288 0
41 1 28.7474 4.04464 0
42 1 22.7467 13.8659 0
43 1 3.27954 15.9546 0
44 1 29.7751 21.5816 0
45 1 25.3878 28.986 0
46 1 2.58613 6.97006 0
47 1 11.9014 13.9771 0
48 1 8.39759 28.5326 0
49 1 28.9984 3.03164 0
50 1 7.30625 21.3706 0
51 1 27.6631 14.5855 0
52 1 4.574 1.75171 0
53 1 6.80153 14.017 0
54 1 0.704448 19.4634 0
55 1 20.3999 16.0064 0
56 1 2.31822 0.648117 0
57 1 17.9716 14.6884 0
58 1 1.65525 3.21445 0
59 1 21.5408 9.93149 0
60 1 24.8223 26.8258 0
61 1 29.6303 11.8825 0
62 1 23.2118 6.2928 0
63 1 18.6191 0.316109 0
64 1 21.5162 21.1609 0
65 1 27.1467 19.2479 0
66 1 8.21562 20.0717 0
67 1 2.48735 22.6233 0
68 1 4.61541 14.5323 0
69 1 20.2537 26.3679 0
70 1 16.4676 19.3046 0
71 1 26.9553 25.0615 0
72 1 21.093 25.3329 0
73 1 6.26713 28.6782 0
74 1 15.4217 7.80918 0
75 1 1.45383 25.5491 0
76 1 17.8273 25.6657 0
77 1 8.76627 24.937 0
78 1 8.95973 22.613 0
79 1 16.6115 17.0048 0
80 1 8.89759 4.78141 0
81 1 3.53834 28.0944 0
82 1 28.9129 30.2908 0
83 1 18.2964 8.61677 0
84 1 25.2065 0.219499 0
85 1 14.802 4.35215 0
86 1 20.0163 24.8565 0
87 1 14.205 21.2309 0
88 1 25.3881 20.1864 0
89 1 26.4587 17.8823 0
90 1 13.7851 28.7533 0
91 1 12.4227 3.44043 0
92 1 24.6102 15.5564 0
93 1 22.4677 10.1215 0
94 1 4.6672 21.1766 0
95 1 20.5817 2.18233 0
96 1 1.2311 29.3923 0
97 1 21.5752 3.72218 0
98 1 12.5472 5.72888 0
99 1 12.0515 10.3334 0
100 1 20.8433 17.0825 0
101 1 11.3822 20.137 0
102 1 7.90772 1.64497 0
103 1 24.2673 17.3047 0
104 1 19.1786 5.92952 0
105 1 15.7513 26.644 0
106 1 9.363 19.245 0
107 1 11.758 25.9599 0
108 1 6.522 10.7309 0
109 1 17.4765 12.2935 0
110 1 24.692 2.0324 0
111 1 11.3409 0.838711 0
112 1 0.813237 10.3359 0
113 1 14.5763 12.6901 0
114 1 6.84215 4.70252 0
115 1 23.957 1.21636 0
116 1 10.2734 0.466721 0
117 1 16.4252 8.36335 0
118 1 11.6848 17.3507 0
119 1 0.68579 8.33057 0
120 1 17.7845 0.646074 0
121 1 23.1929 27.4223 0
122 1 20.2353 11.2987 0
123 1 24.325 9.68917 0
124 1 28.275 6.72285 0
125 1 25.6478 12.3216 0
126 1 5.52492 16.4624 0
127 1 16.2385 4.48672 0
128 1 23.8622 24.5693 0
129 1 20.9184 13.8468 0
130 1 6.3554 12.4615 0
131 1 16.8551 5.83354 0
132 1 3.49125 22.5147 0
133 1 6.94709 24.1277 0
134 1 7.79013 10.6079 0
135 1 2.46968 26.403 0
136 1 19.9637 21.0427 0
137 1 24.6927 6.08346 0
138 1 26.9948 12.3402 0
139 1 0.278312 2.20856 0
140 1 0.413857 3.40138 0
141 1 4.62851 15.6435 0
142 1 9.29177 6.89122 0
143 1 21.8819 5.31687 0
144 1 28.9172 20.7418 0
145 1 17.9427 19.2964 0
146 1 7.28196 15.7567 0
147 1 3.18659 2.54378 0
148 1 19.7629 27.9043 0
149 1 16.7045 28.8326 0
150 1 13.3402 9.55492 0
151 1 14.2683 15.1186 0
152 1 6.96784 8.072 0
153 1 28.2601 29.5871 0
154 1 16.9907 1.16058 0
155 1 16.6933 3.03283 0
156 1 22.1906 14.7443 0
157 1 23.3789 16.7405 0
158 1 12.5918 13.2947 0
159 1 11.4491 18.3667 0
160 1 25.7081 24.8942 0
161 1 16.2337 14.8086 0
162 1 11.8286 27.3854 0
163 1 23.9129 18.5661 0
164 1 19.3086 6.92871 0
165 1 12.9222 23.6078 0
166 1 2.49905 11.1318 0
167 1 21.8429 15.9398 0
168 1 26.7965 23.0282 0
169 1 5.50881 13.6233 0
170 1 26.4638 20.1955 0
171 1 29.7761 18.923 0
172 1 8.5592 8.23586 0
173 1 6.24037 3.28001 0
174 1 14.9626 5.70266 0
175 1 22.5726 7.31431 0
176 1 18.1863 5.92874 0
177 1 21.1654 18.8828 0
178 1 3.01277 20.5596 0
179 1 22.3579 21.7691 0
180 1 27.6537 17.9872 0
181 1 4.14652 26.2854 0
182 1 3.89144 8.44954 0
183 1 28.3999 9.42157 0
184 1 29.2921 22.282 0
185 1 13.9947 11.0677 0
186 1 9.00137 26.3946 0
187 1 2.70024 13.4926 0
188 1 0.512692 26.2115 0
189 1 23.1634 21.6442 0
190 1 28.9013 24.4577 0
191 1 12.2311 2.24769 0
192 1 11.8928 9.02318 0
193 1 23.5465 23.6105 0
194 1 19.5554 2.14101 0
ITEM: TIMESTEP
1830
ITEM: NUMBER OF ATOMS
194
ITEM: BOX BOUNDS pp pp pp
0.0000000000000000e+00 3.0000000000000000e+01
0.0000000000000000e+00 3.0000000000000000e+01
-5.0000000000000000e-01 5.0000000000000000e-01
ITEM: ATOMS id type x y z
1 1 26.9488 3.52731 0
2 1 17.5676 6.88481 0
3 1 14.2512 22.8484 0
4 1 15.459 21.5422 0
5 1 2.40975 27.9825 0
6 1 14.5381 0.261829 0
7 1 6.39437 27.0334 0
8 1 20.5412 21.8853 0
9 1 16.6454 25.9209 0
10 1 13.6004 5.59627 0
11 1 1.62785 11.0591 0
12 1 25.2493 8.64435 0
13 1 20.8351 27.7184 0
14 1 27.4376 0.581953 0
15 1 13.6268 2.46333 0
16 1 10.6148 15.185 0
17 1 28.4983 26.1242 0
18 1 15.8113 12.5801 0
19 1 21.2307 26.4035 0
20 1 11.2116 25.1201 0
21 1 13.4929 26.7175 0
22 1 20.0705 3.79398 0
23 1 3.45835 27.3285 0
24 1 23.3213 9.39246 0
25 1 1.29352 6.98302 0
26 1 23.7313 29.2352 0
27 1 28.4715 16.5089 0
28 1 18.303 27.7908 0
29 1 11.062 8.58323 0
30 1 21.757 28.0417 0
31 1 8.43251 3.80742 0
32 1 5.96943 1.69499 0
33 1 9.55425 27.5652 0
34 1 3.74664 14.8768 0
35 1 20.7041 29.175 0
36 1 29.243 15.8635 0
37 1 19.72 13.4721 0
38 1 23.6713 2.49887 0
39 1 27.4962 13.1276 0
40 1 14.2467 1.01902 0
41 1 28.9432 4.72433 0
42 1 22.9018 14.1315 0
43 1 3.56755 16.1437 0
44 1 29.9351 21.329 0
45 1 25.8984 29.025 0
46 1 2.64093 7.03795 0
47 1 11.5823 14.0353 0
48 1 7.89054 28.7108 0
49 1 29.1041 2.9396 0
50 1 7.33299 21.1851 0
51 1 27.9065 14.424 0
52 1 4.40255 2.05433 0
53 1 6.99308 14.2448 0
54 1 0.750963 19.5335 0
55 1 20.5952 15.6361 0
56 1 2.25677 0.808411 0
57 1 17.728 14.4053 0
58 1 1.33852 3.33447 0
59 1 21.2048 9.60416 0
60 1 25.0899 26.7582 0
61 1 29.7235 11.5663 0
62 1 23.0174 6.28392 0
63 1 18.564 0.313233 0
64 1 21.2247 21.2268 0
65 1 27.1254 18.8782 0
66 1 7.98788 20.3297 0
67 1 2.53364 22.253 0
68 1 4.87127 14.5822 0
69 1 20.0859 25.9259 0
70 1 16.2148 19.4693 0
71 1 26.8836 24.9894 0
72 1 20.8709 25.5015 0
73 1 5.99919 28.6978 0
74 1 15.4802 7.65494 0
75 1 1.04699 25.4431 0
76 1 17.583 25.626 0
77 1 8.62977 25.1145 0
78 1 8.78192 22.5783 0
79 1 16.6993 16.5427 0
80 1 8.69621 4.91716 0
81 1 3.54213 28.5526 0
82 1 29.161 0.914737 0
83 1 18.6136 9.06614 0
84 1 25.2298 0.00336737 0
85 1 15.0401 4.47769 0
86 1 20.1885 24.7491 0
87 1 14.1808 21.2267 0
88 1 25.294 20.2259 0
89 1 25.9501 18.0944 0
90 1 13.654 28.8373 0
91 1 12.8965 3.25761 0
92 1 24.5483 15.6558 0
93 1 22.9651 10.5477 0
94 1 4.56326 20.8835 0
95 1 20.3353 2.48653 0
96 1 1.38958 29.1794 0
97 1 21.345 3.21401 0
98 1 12.6001 5.13137 0
99 1 11.8082 9.9544 0
100 1 21.1529 16.8231 0
101 1 11.4695 20.477 0
102 1 7.74064 1.93467 0
103 1 24.5064 17.5438 0
104 1 19.1055 5.59944 0
105 1 15.7498 26.972 0
106 1 9.43132 19.5824 0
107 1 11.6262 26.1832 0
108 1 6.17279 11.0113 0
109 1 17.8578 11.8262 0
110 1 24.2941 1.55282 0
111 1 11.4077 0.841096 0
112 1 0.852847 10.0462 0
113 1 14.6 12.3878 0
114 1 7.20064 4.68288 0
115 1 23.9549 0.533446 0
116 1 10.5467 0.636929 0
117 1 16.3473 7.81767 0
118 1 12.1829 17.475 0
119 1 0.456038 8.12327 0
120 1 17.5641 0.526597 0
121 1 23.072 27.8223 0
122 1 20.1683 11.0856 0
123 1 24.4228 9.61304 0
124 1 28.0556 6.55993 0
125 1 25.4998 12.3413 0
126 1 5.26694 16.4999 0
127 1 16.2223 4.5192 0
128 1 23.9345 24.6895 0
129 1 20.791 13.6914 0
130 1 6.07092 11.8595 0
131 1 16.9988 5.9652 0
132 1 3.78698 22.5038 0
133 1 6.5988 23.7271 0
134 1 7.82738 10.9003 0
135 1 2.56103 26.5197 0
136 1 19.4229 21.1891 0
137 1 25.0476 6.06106 0
138 1 26.7692 12.1423 0
139 1 -0.0467169 2.26087 0
140 1 0.345521 4.03475 0
141 1 4.78546 15.8069 0
142 1 9.29708 7.36495 0
143 1 22.0178 5.74151 0
144 1 28.9802 20.4755 0
145 1 18.2408 19.3964 0
146 1 7.63232 15.4629 0
147 1 3.09027 2.44443 0
148 1 19.9002 27.6499 0
149 1 16.8319 28.6656 0
150 1 13.5925 9.30399 0
151 1 13.8399 14.9675 0
152 1 7.27094 7.569 0
153 1 28.5937 29.4837 0
154 1 16.8754 1.19881 0
155 1 16.6518 3.25604 0
156 1 22.4013 15.0597 0
157 1 23.5212 16.7753 0
158 1 13.1255 13.1431 0
159 1 11.5064 18.2957 0
160 1 26.0848 24.4958 0
161 1 16.4422 14.5125 0
162 1 11.4721 28.1676 0
163 1 24.0008 18.437 0
164 1 19.0212 6.93241 0
165 1 13.0031 23.6445 0
166 1 2.54243 11.3299 0
167 1 21.6328 16.2215 0
168 1 26.9824 23.0039 0
169 1 5.49668 13.7584 0
170 1 26.5494 20.2715 0
171 1 29.9866 18.9111 0
172 1 8.98651 8.41715 0
173 1 6.43859 3.54537 0
174 1 14.6189 5.79214 0
175 1 22.7086 7.43252 0
176 1 18.0439 6.13212 0
177 1 21.0686 19.047 0
178 1 3.0496 20.725 0
179 1 22.2985 21.7164 0
180 1 27.5103 17.8536 0
181 1 4.24623 25.9505 0
182 1 4.12403 8.39006 0
183 1 28.4142 9.04581 0
184 1 29.3399 22.3465 0
185 1 13.9832 11.3636 0
186 1 8.81158 26.3498 0
187 1 3.07157 13.3459 0
188 1 0.51122 26.2228 0
189 1 23.2128 21.719 0
190 1 28.9986 24.3685 0
191 1 11.878 2.02455 0
192 1 11.8982 9.14211 0
193 1 23.5085 23.6772 0
194 1 19.4696 1.91816 0
ITEM: TIMESTEP
1845
ITEM: NUMBER OF ATOMS
194
ITEM: BOX BOUNDS pp pp pp
0.0000000000000000e+00 3.0000000000000000e+01
0.0000000000000000e+00 3.0000000000000000e+01
-5.0000000000000000e-01 5.0000000000000000e-01
ITEM: ATOMS id type x y z
1 1 26.9317 3.586 0
2 1 17.1173 6.90855 0
3 1 13.8915 23.3475 0
4 1 15.172 21.8235 0
5 1 2.5334 27.8004 0
6 1 14.7559 -0.261436 0
7 1 6.63505 27.3473 0
8 1 20.3376 22.01 0
9 1 16.3953 26.6481 0
10 1 13.2098 5.49405 0
11 1 1.60992 10.5505 0
12 1 25.6034 8.95849 0
13 1 20.8832 27.8076 0
14 1 27.6708 0.486131 0
15 1 13.6091 2.15672 0
16 1 10.7621 15.3873 0
17 1 28.408 26.087 0
18 1 15.7818 12.363 0
19 1 21.3324 26.3643 0
20 1 11.1039 25.23 0
21 1 13.7119 26.7095 0
22 1 20.027 4.00824 0
23 1 3.63621 27.4601 0
24 1 23.3922 9.44231 0
25 1 1.36273 6.68768 0
26 1 23.573 29.2359 0
27 1 28.2505 16.3922 0
28 1 18.2689 27.3118 0
29 1 10.9321 8.68597 0
30 1 21.9644 28.1214 0
31 1 8.21537 4.12516 0
32 1 6.01185 1.51202 0
33 1 9.42671 27.5177 0
34 1 4.02806 14.8745 0
35 1 20.4943 29.6757 0
36 1 29.227 16.2399 0
37 1 19.3229 13.591 0
38 1 23.5797 2.54172 0
39 1 27.2938 12.9794 0
40 1 14.6652 1.24228 0
41 1 29.1406 5.40196 0
42 1 23.0645 14.383 0
43 1 3.86139 16.3272 0
44 1 0.111503 21.0418 0
45 1 26.4061 29.068 0
46 1 2.69163 7.10597 0
47 1 11.2627 14.0948 0
48 1 7.38311 28.8884 0
49 1 29.1346 2.92539 0
50 1 7.24604 21.1351 0
51 1 28.149 14.259 0
52 1 4.22897 2.35767 0
53 1 7.18394 14.4747 0
54 1 0.84114 19.641 0
55 1 20.7972 15.2709 0
56 1 2.19539 0.968791 0
57 1 17.4943 14.1212 0
58 1 1.01713 3.45649 0
59 1 20.8693 9.27777 0
60 1 25.3574 26.6906 0
61 1 29.8175 11.2494 0
62 1 22.9179 6.31198 0
63 1 18.5665 0.294308 0
64 1 20.6711 21.016 0
65 1 27.0893 18.5404 0
66 1 7.87566 20.4519 0
67 1 2.58333 21.8814 0
68 1 5.09527 14.6816 0
69 1 19.7132 25.5709 0
70 1 15.9624 19.6342 0
71 1 26.9011 24.9832 0
72 1 20.8352 25.5294 0
73 1 5.73211 28.7162 0
74 1 15.3232 7.45763 0
75 1 0.692025 25.2576 0
76 1 17.4108 25.5798 0
77 1 8.49368 25.2952 0
78 1 8.6037 22.5433 0
79 1 16.7872 16.0802 0
80 1 8.49381 5.0567 0
81 1 3.5415 29.004 0
82 1 29.4036 1.5275 0
83 1 18.9308 9.51516 0
84 1 25.2508 29.7849 0
85 1 15.2728 4.60744 0
86 1 20.3409 24.6211 0
87 1 14.1614 21.2257 0
88 1 25.2044 20.265 0
89 1 25.4464 18.3096 0
90 1 13.5237 28.9224 0
91 1 13.3569 3.09593 0
92 1 24.4843 15.7575 0
93 1 23.4635 10.9698 0
94 1 4.45652 20.5909 0
95 1 20.1143 2.80812 0
96 1 1.55007 28.9653 0
97 1 21.1153 2.70649 0
98 1 12.6503 4.53011 0
99 1 11.5068 10.0312 0
100 1 20.9644 17.178 0
101 1 11.5567 20.8166 0
102 1 7.57266 2.22488 0
103 1 24.7768 17.7332 0
104 1 19.0336 5.27314 0
105 1 15.7484 27.2999 0
106 1 9.49838 19.9206 0
107 1 11.4947 26.4068 0
108 1 5.91784 10.5801 0
109 1 18.2391 11.359 0
110 1 23.9052 1.07618 0
111 1 11.6954 0.88989 0
112 1 0.894881 9.76017 0
113 1 14.6582 12.1155 0
114 1 7.5565 4.66246 0
115 1 24.0174 -0.00132946 0
116 1 10.6008 0.756303 0
117 1 16.473 7.32253 0
118 1 12.6886 17.5859 0
119 1 0.228347 7.91352 0
120 1 17.3788 0.343507 0
121 1 22.9494 28.2247 0
122 1 20.1016 10.872 0
123 1 24.5228 9.53368 0
124 1 27.8365 6.39669 0
125 1 25.3571 12.3603 0
126 1 5.26107 16.875 0
127 1 16.212 4.54887 0
128 1 24.0096 24.8162 0
129 1 20.6808 13.5438 0
130 1 5.69393 11.9697 0
131 1 17.0689 5.95337 0
132 1 4.08027 22.4909 0
133 1 6.25067 23.3266 0
134 1 7.86265 11.193 0
135 1 2.65576 26.642 0
136 1 18.8861 21.3374 0
137 1 25.402 6.03874 0
138 1 26.5416 11.9494 0
139 1 29.7096 2.24912 0
140 1 0.278004 4.66417 0
141 1 4.68288 15.627 0
142 1 9.3068 7.77169 0
143 1 22.0582 6.13444 0
144 1 29.0477 20.2125 0
145 1 18.5385 19.4965 0
146 1 7.98103 15.1662 0
147 1 2.99705 2.34358 0
148 1 19.9191 27.3825 0
149 1 16.9604 28.4981 0
150 1 13.8431 9.05347 0
151 1 13.4113 14.816 0
152 1 7.57497 7.06622 0
153 1 28.9265 29.383 0
154 1 16.6677 1.31715 0
155 1 16.6086 3.48336 0
156 1 22.6084 15.3868 0
157 1 23.6677 16.8112 0
158 1 13.66 12.9912 0
159 1 11.5561 18.2382 0
160 1 26.3733 24.0303 0
161 1 16.6407 14.2175 0
162 1 11.1155 28.9491 0
163 1 24.054 18.3524 0
164 1 18.7281 6.93103 0
165 1 13.0822 23.6818 0
166 1 2.73806 11.5404 0
167 1 21.9105 15.8861 0
168 1 27.1676 22.9811 0
169 1 5.51504 13.8493 0
170 1 26.6318 20.3448 0
171 1 0.152498 18.8632 0
172 1 9.40912 8.66534 0
173 1 6.63963 3.81316 0
174 1 14.3042 5.88186 0
175 1 22.8456 7.54568 0
176 1 18.0446 6.17847 0
177 1 20.9718 19.2112 0
178 1 3.08827 20.8929 0
179 1 22.3751 21.8534 0
180 1 27.3764 17.688 0
181 1 4.34678 25.6133 0
182 1 4.35632 8.33031 0
183 1 28.4287 8.66991 0
184 1 29.3673 22.4413 0
185 1 13.9407 11.6315 0
186 1 8.62304 26.3048 0
187 1 3.4436 13.2003 0
188 1 0.458328 26.314 0
189 1 23.4604 21.7926 0
190 1 29.0957 24.2798 0
191 1 11.5254 1.80775 0
192 1 12.017 8.83903 0
193 1 23.468 23.7368 0
194 1 19.3536 1.68288 0
ITEM: TIMESTEP
1860
ITEM: NUMBER OF ATOMS
194
ITEM: BOX BOUNDS pp pp pp
0.0000000000000000e+00 3.0000000000000000e+01
0.0000000000000000e+00 3.0000000000000000e+01
-5.0000000000000000e-01 5.0000000000000000e-01
ITEM: ATOMS id type x y z
1 1 26.9147 3.64465 0
2 1 17.4035 6.76119 0
3 1 13.94 23.7077 0
4 1 14.8814 22.1031 0
5 1 2.14964 27.8429 0
6 1 14.9755 29.2026 0
7 1 6.87557 27.6635 0
8 1 20.102 22.1846 0
9 1 16.3661 27.1689 0
10 1 12.8237 5.39432 0
11 1 1.61443 10.065 0
12 1 25.9526 9.27516 0
13 1 20.9692 27.9045 0
14 1 27.9049 0.389163 0
15 1 13.6149 1.78728 0
16 1 10.9107 15.5861 0
17 1 28.3178 26.0489 0
18 1 15.772 12.1501 0
19 1 21.4742 26.4036 0
20 1 10.9979 25.3448 0
21 1 13.9309 26.7017 0
22 1 19.9835 4.21871 0
23 1 4.31918 27.366 0
24 1 23.4645 9.49432 0
25 1 1.43438 6.39429 0
26 1 23.469 29.0591 0
27 1 27.9279 16.3135 0
28 1 18.2351 26.8326 0
29 1 10.7908 8.78687 0
30 1 21.9422 28.1387 0
31 1 8.37306 4.0557 0
32 1 6.0548 1.32981 0
33 1 9.2976 27.4676 0
34 1 4.20561 14.7433 0
35 1 20.2844 0.175599 0
36 1 29.3111 16.58 0
37 1 18.9289 13.7102 0
38 1 23.4889 2.58186 0
39 1 27.0892 12.8288 0
40 1 15.0779 1.47916 0
41 1 29.3406 6.07796 0
42 1 23.232 14.6205 0
43 1 4.15393 16.5135 0
44 1 0.284501 20.7515 0
45 1 26.9108 29.1138 0
46 1 2.73898 7.17312 0
47 1 10.9419 14.1579 0
48 1 6.87383 29.0647 0
49 1 28.9382 3.15001 0
50 1 6.94767 21.3293 0
51 1 28.3905 14.0925 0
52 1 4.05061 2.66067 0
53 1 7.35178 14.6924 0
54 1 0.949538 19.7709 0
55 1 21.0046 14.9081 0
56 1 2.13508 1.13052 0
57 1 17.6158 13.7951 0
58 1 0.692356 3.58009 0
59 1 20.5329 8.95235 0
60 1 25.6248 26.6227 0
61 1 29.9125 10.9318 0
62 1 23.137 6.43206 0
63 1 18.568 0.276817 0
64 1 20.1484 20.7541 0
65 1 26.9905 18.3836 0
66 1 7.97642 20.3301 0
67 1 2.56604 21.602 0
68 1 5.28937 14.8603 0
69 1 19.2836 25.234 0
70 1 15.7099 19.7993 0
71 1 26.9467 25.0052 0
72 1 20.8297 25.4887 0
73 1 5.46698 28.7337 0
74 1 15.1054 7.25962 0
75 1 0.347556 25.0466 0
76 1 17.2378 25.5356 0
77 1 8.3495 25.4069 0
78 1 8.42501 22.5078 0
79 1 16.8751 15.6167 0
80 1 8.37118 5.27836 0
81 1 3.53889 29.4511 0
82 1 29.3305 1.41097 0
83 1 19.2491 9.96586 0
84 1 25.2704 29.5648 0
85 1 15.3635 4.75119 0
86 1 20.4785 24.4703 0
87 1 14.1453 21.2269 0
88 1 25.1181 20.3038 0
89 1 25.1729 18.795 0
90 1 13.3953 29.0087 0
91 1 13.795 2.99617 0
92 1 24.4167 15.8627 0
93 1 23.9627 11.3887 0
94 1 4.34602 20.2998 0
95 1 19.8656 3.13132 0
96 1 1.71255 28.7496 0
97 1 20.9101 2.19974 0
98 1 12.6986 3.92541 0
99 1 11.1952 10.1513 0
100 1 20.7649 17.5463 0
101 1 11.6437 21.1562 0
102 1 7.40349 2.51577 0
103 1 24.8891 17.5747 0
104 1 18.9591 4.94989 0
105 1 15.5287 27.8343 0
106 1 9.5644 20.2593 0
107 1 11.3618 26.6258 0
108 1 5.68541 9.98406 0
109 1 18.6214 10.8908 0
110 1 23.5056 0.623361 0
111 1 12.0442 0.856167 0
112 1 0.914155 9.45241 0
113 1 14.9078 11.9978 0
114 1 7.45247 4.94359 0
115 1 24.3292 29.9547 0
116 1 10.6165 0.868397 0
117 1 15.9454 7.26335 0
118 1 13.191 17.6987 0
119 1 0.0012827 7.70325 0
120 1 17.1964 0.159848 0
121 1 22.7704 28.3549 0
122 1 20.0336 10.6567 0
123 1 24.6255 9.45241 0
124 1 27.6183 6.23282 0
125 1 25.2197 12.3775 0
126 1 5.25765 17.2561 0
127 1 16.3406 4.57897 0
128 1 24.0827 24.939 0
129 1 20.567 13.3973 0
130 1 5.29486 12.2453 0
131 1 17.0387 5.69983 0
132 1 4.37178 22.4764 0
133 1 5.90247 22.9259 0
134 1 7.89736 11.4857 0
135 1 2.75334 26.7708 0
136 1 18.3517 21.4859 0
137 1 25.7565 6.01644 0
138 1 26.3121 11.7625 0
139 1 30.0096 2.72901 0
140 1 0.208845 5.29285 0
141 1 4.65121 15.604 0
142 1 9.3076 7.96847 0
143 1 21.7805 6.44193 0
144 1 29.1199 19.9514 0
145 1 18.8364 19.5973 0
146 1 8.3516 14.8815 0
147 1 2.90785 2.24121 0
148 1 19.8968 27.1029 0
149 1 17.0884 28.3292 0
150 1 14.0931 8.80275 0
151 1 12.9826 14.6637 0
152 1 7.87979 6.56321 0
153 1 29.2583 29.2836 0
154 1 16.4587 1.4358 0
155 1 16.5683 3.69946 0
156 1 23.1081 15.5515 0
157 1 23.8194 16.8468 0
158 1 14.1982 12.8335 0
159 1 11.6091 18.179 0
160 1 26.6333 23.5368 0
161 1 16.4846 13.9648 0
162 1 10.7588 29.7319 0
163 1 24.0339 18.342 0
164 1 18.4767 6.99068 0
165 1 12.7532 23.8574 0
166 1 2.9333 11.7506 0
167 1 21.8985 15.7122 0
168 1 27.3542 22.9585 0
169 1 5.5956 13.8228 0
170 1 26.711 20.417 0
171 1 0.29784 18.796 0
172 1 9.84285 9.12356 0
173 1 6.84599 4.08373 0
174 1 13.9896 5.96961 0
175 1 22.9824 7.65267 0
176 1 18.0838 6.13472 0
177 1 20.8748 19.3757 0
178 1 3.19965 20.9691 0
179 1 22.4221 21.991 0
180 1 27.3044 17.3398 0
181 1 4.44677 25.2768 0
182 1 4.58837 8.27039 0
183 1 28.4436 8.29369 0
184 1 29.3955 22.5347 0
185 1 13.6837 11.7473 0
186 1 8.4442 26.3316 0
187 1 3.81605 13.055 0
188 1 0.394132 26.4304 0
189 1 23.7365 21.8659 0
190 1 29.1932 24.1914 0
191 1 11.1508 1.67958 0
192 1 12.1553 8.49424 0
193 1 23.4294 23.7997 0
194 1 19.2387 1.44855 0
ITEM: TIMESTEP
1875
ITEM: NUMBER OF ATOMS
194
ITEM: BOX BOUNDS pp pp pp
0.0000000000000000e+00 3.0000000000000000e+01
0.0000000000000000e+00 3.0000000000000000e+01
-5.0000000000000000e-01 5.0000000000000000e-01
ITEM: ATOMS id type x y z
1 1 26.8981 3.70323 0
2 1 17.5758 6.69014 0
3 1 14.116 24.0299 0
4 1 14.5886 22.381 0
5 1 1.81314 27.7108 0
6 1 15.0491 29.1054 0
7 1 7.11554 27.9834 0
8 1 19.8661 22.3561 0
9 1 16.4518 27.5877 0
10 1 12.4414 5.29377 0
11 1 1.71549 9.66477 0
12 1 26.2975 9.59262 0
13 1 20.566 27.8999 0
14 1 28.1397 0.290774 0
15 1 13.6234 1.41542 0
16 1 11.0596 15.7815 0
17 1 28.2273 26.0098 0
18 1 16.0122 11.9815 0
19 1 21.6181 26.4516 0
20 1 10.8933 25.464 0
21 1 14.1503 26.6944 0
22 1 19.9386 4.43696 0
23 1 5.00069 27.2721 0
24 1 23.5403 9.54618 0
25 1 1.50611 6.10153 0
26 1 23.7422 29.3066 0
27 1 27.6185 16.2144 0
28 1 18.2009 26.3525 0
29 1 10.7518 8.82382 0
30 1 21.7486 28.0629 0
31 1 8.61569 3.89936 0
32 1 6.09832 1.14809 0
33 1 9.1663 27.4144 0
34 1 4.2751 14.4544 0
35 1 20.0723 0.677286 0
36 1 29.3928 16.9197 0
37 1 18.5587 13.8367 0
38 1 23.3981 2.62142 0
39 1 26.8818 12.6749 0
40 1 15.4706 1.71987 0
41 1 29.5388 6.74757 0
42 1 23.4093 14.7522 0
43 1 4.43713 16.7286 0
44 1 0.438222 20.4765 0
45 1 27.4155 29.1615 0
46 1 2.78443 7.2392 0
47 1 10.6213 14.2243 0
48 1 6.36151 29.2368 0
49 1 28.7228 3.39159 0
50 1 6.6501 21.5237 0
51 1 28.6314 13.9255 0
52 1 3.86739 2.96177 0
53 1 7.48568 14.8984 0
54 1 1.0725 19.8819 0
55 1 21.2153 14.5466 0
56 1 2.07737 1.29542 0
57 1 17.7981 13.4512 0
58 1 0.525906 3.99453 0
59 1 20.1952 8.62862 0
60 1 25.8924 26.5545 0
61 1 30.0084 10.6132 0
62 1 23.3594 6.55848 0
63 1 18.5685 0.262539 0
64 1 19.6255 20.4931 0
65 1 26.8802 18.2607 0
66 1 8.07821 20.2091 0
67 1 2.35262 21.5518 0
68 1 5.52784 15.0009 0
69 1 18.8587 24.8964 0
70 1 15.4572 19.9647 0
71 1 26.9924 25.0252 0
72 1 20.8214 25.4514 0
73 1 5.20489 28.7506 0
74 1 14.523 7.05904 0
75 1 0.000703978 24.8375 0
76 1 17.0658 25.4932 0
77 1 8.19003 25.3744 0
78 1 8.24583 22.4717 0
79 1 16.9629 15.1515 0
80 1 8.38373 5.39298 0
81 1 3.53586 29.8975 0
82 1 29.2211 1.21396 0
83 1 19.4999 9.95845 0
84 1 25.3425 29.3158 0
85 1 15.359 4.90805 0
86 1 20.6098 24.3128 0
87 1 14.1313 21.2301 0
88 1 25.0334 20.3406 0
89 1 24.956 19.366 0
90 1 13.2688 29.0953 0
91 1 14.2301 2.89946 0
92 1 24.3932 15.9779 0
93 1 24.4609 11.8056 0
94 1 4.23169 20.0112 0
95 1 19.6159 3.44681 0
96 1 1.83128 28.7044 0
97 1 20.7028 1.69376 0
98 1 12.7498 3.32162 0
99 1 10.8823 10.2667 0
100 1 20.5656 17.915 0
101 1 11.7305 21.4957 0
102 1 7.23367 2.80819 0
103 1 24.942 17.3239 0
104 1 18.8853 4.62699 0
105 1 15.3402 28.0324 0
106 1 9.6288 20.5981 0
107 1 11.2274 26.8403 0
108 1 5.45266 9.38786 0
109 1 18.7538 10.6555 0
110 1 23.0919 0.191108 0
111 1 12.3952 0.808389 0
112 1 0.835952 9.06024 0
113 1 14.936 11.812 0
114 1 7.18774 5.29962 0
115 1 24.6015 29.9152 0
116 1 10.5132 1.08274 0
117 1 15.7233 7.23823 0
118 1 13.6918 17.812 0
119 1 29.7755 7.49965 0
120 1 17.0163 -0.0215922 0
121 1 22.8742 28.2541 0
122 1 20.2844 10.6649 0
123 1 24.7288 9.37087 0
124 1 27.4004 6.06885 0
125 1 25.0885 12.3933 0
126 1 5.25011 17.6335 0
127 1 16.5184 4.77193 0
128 1 24.1536 25.0578 0
129 1 20.4522 13.2529 0
130 1 4.89984 12.5202 0
131 1 17.0117 5.44679 0
132 1 4.66243 22.4613 0
133 1 5.55479 22.5244 0
134 1 7.93202 11.7783 0
135 1 2.8499 26.9047 0
136 1 17.8185 21.634 0
137 1 26.1119 5.99423 0
138 1 26.0805 11.5821 0
139 1 0.205085 2.98177 0
140 1 0.140215 5.92203 0
141 1 4.69073 15.7675 0
142 1 9.30865 8.15976 0
143 1 21.4996 6.74926 0
144 1 29.1967 19.6913 0
145 1 19.1352 19.6991 0
146 1 8.75538 14.6082 0
147 1 2.8211 2.13726 0
148 1 19.8777 26.8241 0
149 1 17.2155 28.1591 0
150 1 14.3431 8.55113 0
151 1 12.5536 14.5113 0
152 1 8.13519 6.20697 0
153 1 29.5892 29.185 0
154 1 16.2686 1.5489 0
155 1 16.5683 3.73236 0
156 1 23.6214 15.7828 0
157 1 23.973 16.886 0
158 1 14.7191 12.7038 0
159 1 11.6636 18.1192 0
160 1 26.7217 23.1598 0
161 1 16.2454 13.7234 0
162 1 10.3833 0.144021 0
163 1 24.0135 18.3346 0
164 1 18.3397 7.18755 0
165 1 12.297 24.0705 0
166 1 3.12958 11.9622 0
167 1 21.8168 15.5668 0
168 1 27.7134 22.8226 0
169 1 5.68169 13.7776 0
170 1 26.7883 20.4886 0
171 1 0.443053 18.732 0
172 1 10.179 9.6542 0
173 1 7.04265 4.32478 0
174 1 13.6722 6.05581 0
175 1 23.1193 7.75413 0
176 1 18.1846 5.84953 0
177 1 20.7762 19.5413 0
178 1 3.51161 20.8143 0
179 1 22.4734 22.1284 0
180 1 27.232 16.9789 0
181 1 4.54658 24.9407 0
182 1 4.82053 8.21087 0
183 1 28.46 7.91658 0
184 1 29.4233 22.6291 0
185 1 13.4156 11.8598 0
186 1 8.28269 26.5058 0
187 1 4.18443 12.9116 0
188 1 0.329887 26.5433 0
189 1 24.0084 21.9399 0
190 1 29.2926 24.1035 0
191 1 10.9128 1.83428 0
192 1 12.2901 8.15091 0
193 1 23.393 23.866 0
194 1 19.1241 1.21052 0
ITEM: TIMESTEP
1890
ITEM: NUMBER OF ATOMS
194
ITEM: BOX BOUNDS pp pp pp
0.0000000000000000e+00 3.0000000000000000e+01
0.0000000000000000e+00 3.0000000000000000e+01
-5.0000000000000000e-01 5.0000000000000000e-01
ITEM: ATOMS id type x y z
1 1 26.8822 3.76189 0
2 1 17.5395 6.59204 0
3 1 14.2911 24.3511 0
4 1 14.2939 22.6555 0
5 1 1.51081 27.3921 0
6 1 14.8676 29.7933 0
7 1 7.35437 28.3054 0
8 1 19.63 22.527 0
9 1 16.4188 27.9459 0
10 1 12.062 5.19433 0
11 1 1.84025 9.28342 0
12 1 26.6403 9.91034 0
13 1 19.8596 27.8326 0
14 1 28.3755 0.190816 0
15 1 13.6326 1.04511 0
16 1 11.2086 15.9751 0
17 1 28.1357 25.9692 0
18 1 16.3058 11.8238 0
19 1 21.7578 26.4984 0
20 1 10.7899 25.5862 0
21 1 14.3707 26.6879 0
22 1 19.9063 4.67341 0
23 1 5.68241 27.1805 0
24 1 23.6208 9.59672 0
25 1 1.57473 5.80909 0
26 1 23.9848 29.5331 0
27 1 27.4497 15.8356 0
28 1 18.1653 25.8693 0
29 1 10.8011 8.78498 0
30 1 21.8546 28.0427 0
31 1 8.85505 3.74673 0
32 1 6.14212 0.966093 0
33 1 9.03154 27.3577 0
34 1 4.35026 14.1655 0
35 1 19.7626 1.03751 0
36 1 29.4738 17.2595 0
37 1 18.4364 14.0892 0
38 1 23.3073 2.66087 0
39 1 26.6709 12.5174 0
40 1 15.3813 2.07417 0
41 1 29.296 6.75797 0
42 1 23.5833 14.843 0
43 1 4.71022 16.9937 0
44 1 0.394816 20.3774 0
45 1 27.9223 29.2126 0
46 1 2.82912 7.30461 0
47 1 10.3005 14.2926 0
48 1 5.84612 29.4052 0
49 1 28.5097 3.63259 0
50 1 6.35958 21.7148 0
51 1 28.8721 13.7584 0
52 1 3.68053 3.26012 0
53 1 7.62136 15.1035 0
54 1 1.38738 19.8105 0
55 1 21.4274 14.1871 0
56 1 2.01152 1.45261 0
57 1 17.7298 12.9822 0
58 1 0.521068 4.7278 0
59 1 19.8562 8.30773 0
60 1 26.1603 26.4856 0
61 1 0.105138 10.2935 0
62 1 23.5799 6.69012 0
63 1 18.5537 0.222085 0
64 1 19.2627 20.6395 0
65 1 26.7707 18.1332 0
66 1 8.18119 20.0892 0
67 1 2.13785 21.5028 0
68 1 5.76585 15.1332 0
69 1 18.4339 24.5609 0
70 1 15.2039 20.1307 0
71 1 27.0394 25.046 0
72 1 20.8146 25.4166 0
73 1 4.94679 28.7671 0
74 1 13.9046 6.86007 0
75 1 29.7371 24.7425 0
76 1 16.8971 25.4529 0
77 1 8.02958 25.3312 0
78 1 8.06614 22.4349 0
79 1 17.0505 14.6841 0
80 1 8.60427 4.8607 0
81 1 3.53252 0.343969 0
82 1 29.1094 1.01496 0
83 1 19.7803 9.4481 0
84 1 25.4972 29.006 0
85 1 15.3557 5.06472 0
86 1 20.7405 24.1579 0
87 1 14.1195 21.2373 0
88 1 24.9944 20.6514 0
89 1 24.6917 19.6603 0
90 1 13.1431 29.1826 0
91 1 14.6638 2.80051 0
92 1 24.9428 16.2006 0
93 1 24.55 11.8119 0
94 1 4.1248 19.7099 0
95 1 19.3703 3.73213 0
96 1 1.91915 28.8423 0
97 1 20.6772 1.31704 0
98 1 12.803 2.71726 0
99 1 10.961 10.7195 0
100 1 20.3663 18.2854 0
101 1 11.8173 21.8351 0
102 1 7.06407 3.10325 0
103 1 25.0207 17.0869 0
104 1 18.7925 4.31909 0
105 1 15.4076 27.4431 0
106 1 9.6916 20.9367 0
107 1 11.0919 27.0514 0
108 1 5.2446 8.86156 0
109 1 18.5616 10.7146 0
110 1 22.6801 29.7576 0
111 1 12.7449 0.761332 0
112 1 0.7324 8.64935 0
113 1 14.9467 11.4862 0
114 1 6.93932 5.71179 0
115 1 24.8182 29.9559 0
116 1 10.1698 1.32938 0
117 1 15.5377 7.21483 0
118 1 14.1922 17.9255 0
119 1 29.7936 8.12773 0
120 1 16.8376 29.7976 0
121 1 22.9812 28.1566 0
122 1 20.8314 10.8787 0
123 1 24.8291 9.29024 0
124 1 27.2299 5.90292 0
125 1 25.373 12.816 0
126 1 5.23909 18.0068 0
127 1 16.4121 4.68252 0
128 1 24.2227 25.1737 0
129 1 20.3383 13.1108 0
130 1 5.16455 12.4375 0
131 1 17.2641 5.55851 0
132 1 4.49295 22.4598 0
133 1 5.66094 22.1121 0
134 1 7.96667 12.071 0
135 1 2.94294 27.0417 0
136 1 17.2859 21.7819 0
137 1 26.4201 5.97407 0
138 1 25.8462 11.4083 0
139 1 0.235843 2.91646 0
140 1 0.267967 6.38149 0
141 1 4.74127 15.8849 0
142 1 9.31198 8.35293 0
143 1 21.2199 7.05699 0
144 1 29.2782 19.4317 0
145 1 19.2773 19.3927 0
146 1 9.15768 14.3357 0
147 1 2.74642 2.04338 0
148 1 19.8619 26.5477 0
149 1 17.4592 28.0515 0
150 1 14.5934 8.29668 0
151 1 12.1237 14.3591 0
152 1 8.17988 6.49163 0
153 1 29.9194 29.0872 0
154 1 16.5592 1.54863 0
155 1 16.5779 3.68927 0
156 1 23.5808 15.9194 0
157 1 24.0804 16.9467 0
158 1 15.2009 12.7035 0
159 1 11.7185 18.0593 0
160 1 26.7166 22.834 0
161 1 16.0082 13.4813 0
162 1 9.96369 29.9619 0
163 1 23.9986 18.3237 0
164 1 18.3548 7.47388 0
165 1 11.8417 24.2838 0
166 1 3.329 12.1765 0
167 1 21.7348 15.417 0
168 1 28.168 22.6364 0
169 1 5.76343 13.7351 0
170 1 26.8645 20.5598 0
171 1 0.588949 18.6742 0
172 1 10.0343 9.92064 0
173 1 7.22864 4.50917 0
174 1 13.3516 6.13906 0
175 1 23.257 7.85091 0
176 1 18.3368 5.49252 0
177 1 20.674 19.7071 0
178 1 3.81749 20.671 0
179 1 22.5271 22.266 0
180 1 27.0186 16.9026 0
181 1 4.6464 24.6047 0
182 1 5.02782 8.08136 0
183 1 28.4814 7.53711 0
184 1 29.4496 22.7266 0
185 1 13.1519 11.9738 0
186 1 8.12523 26.6949 0
187 1 3.89232 13.1288 0
188 1 0.265862 26.6553 0
189 1 24.2783 22.0139 0
190 1 29.3086 23.8997 0
191 1 10.9613 2.55035 0
192 1 12.424 7.80814 0
193 1 23.3585 23.9346 0
194 1 18.9382 1.01104 0
ITEM: TIMESTEP
1905
ITEM: NUMBER OF ATOMS
194
ITEM: BOX BOUNDS pp pp pp
0.0000000000000000e+00 3.0000000000000000e+01
0.0000000000000000e+00 3.0000000000000000e+01
-5.0000000000000000e-01 5.0000000000000000e-01
ITEM: ATOMS id type x y z
1 1 26.868 3.82084 0
2 1 17.5057 6.56257 0
3 1 14.4661 24.6713 0
4 1 13.9985 22.9278 0
5 1 1.20908 27.0734 0
6 1 14.6878 0.480357 0
7 1 7.593 28.6266 0
8 1 19.3939 22.6978 0
9 1 16.3115 28.2767 0
10 1 11.6842 5.09601 0
11 1 1.9609 8.89987 0
12 1 26.982 10.2289 0
13 1 19.1536 27.7606 0
14 1 28.6001 0.0919289 0
15 1 13.8865 0.735414 0
16 1 11.3576 16.1678 0
17 1 28.0417 25.9262 0
18 1 16.5937 11.6693 0
19 1 21.895 26.5453 0
20 1 10.6878 25.71 0
21 1 14.5856 26.6804 0
22 1 19.876 4.9163 0
23 1 6.36425 27.0903 0
24 1 23.7063 9.64519 0
25 1 1.63859 5.5168 0
26 1 24.1174 29.7027 0
27 1 27.3014 15.413 0
28 1 18.1269 25.381 0
29 1 10.8471 8.74879 0
30 1 21.9612 28.0211 0
31 1 9.10566 3.55429 0
32 1 6.18552 0.782439 0
33 1 8.89902 27.302 0
34 1 4.43495 13.8811 0
35 1 19.6002 1.1947 0
36 1 29.5551 17.6002 0
37 1 18.3311 14.3559 0
38 1 23.2164 2.70033 0
39 1 26.4539 12.3579 0
40 1 15.5175 2.1309 0
41 1 28.9967 6.64045 0
42 1 23.7568 14.926 0
43 1 4.98333 17.2677 0
44 1 0.316563 20.3014 0
45 1 28.4174 29.2273 0
46 1 2.87344 7.36991 0
47 1 10.2251 14.4089 0
48 1 5.33553 29.5785 0
49 1 28.2958 3.87354 0
50 1 6.68139 21.5852 0
51 1 29.1127 13.5913 0
52 1 3.49209 3.55655 0
53 1 7.75753 15.3079 0
54 1 1.73301 19.7106 0
55 1 21.6393 13.8309 0
56 1 1.8558 1.54064 0
57 1 17.64 12.4998 0
58 1 0.517606 5.46311 0
59 1 19.5153 7.98527 0
60 1 26.4292 26.4154 0
61 1 0.202467 9.9722 0
62 1 23.7989 6.82664 0
63 1 18.4308 -0.0779029 0
64 1 18.9585 20.9637 0
65 1 26.6618 18.0005 0
66 1 8.28501 19.9699 0
67 1 1.92332 21.4526 0
68 1 5.99934 15.2642 0
69 1 18.0078 24.23 0
70 1 14.9489 20.2982 0
71 1 27.0882 25.0699 0
72 1 20.8077 25.3815 0
73 1 4.68509 28.7789 0
74 1 13.4502 6.88455 0
75 1 29.583 24.8207 0
76 1 16.7332 25.4135 0
77 1 7.8695 25.2923 0
78 1 7.88575 22.3975 0
79 1 17.1397 14.2138 0
80 1 8.80847 4.3665 0
81 1 3.52842 0.791094 0
82 1 29.0214 0.850931 0
83 1 20.0616 8.94024 0
84 1 25.6542 28.694 0
85 1 15.3536 5.22141 0
86 1 20.8712 24.0078 0
87 1 14.1097 21.2462 0
88 1 24.9981 21.1811 0
89 1 24.3831 19.7354 0
90 1 13.0179 29.2722 0
91 1 14.813 3.01536 0
92 1 25.5268 16.1001 0
93 1 24.5393 11.7097 0
94 1 4.03047 19.3766 0
95 1 19.456 3.68921 0
96 1 2.00634 28.9781 0
97 1 20.9886 1.14164 0
98 1 12.8567 2.11168 0
99 1 11.212 11.3208 0
100 1 20.1729 18.6572 0
101 1 11.9042 22.1745 0
102 1 6.89547 3.40192 0
103 1 25.1845 17.1911 0
104 1 18.3638 4.31273 0
105 1 15.4802 26.856 0
106 1 9.75343 21.275 0
107 1 10.9556 27.26 0
108 1 5.20188 8.87382 0
109 1 18.3706 10.7728 0
110 1 22.2714 29.3214 0
111 1 12.8484 0.653693 0
112 1 0.713671 8.24585 0
113 1 14.9618 11.1546 0
114 1 6.6955 6.12497 0
115 1 25.1389 30.0549 0
116 1 9.82427 1.5706 0
117 1 15.3491 7.1924 0
118 1 14.6926 18.039 0
119 1 29.7565 8.85231 0
120 1 16.6595 29.6167 0
121 1 23.0874 28.0613 0
122 1 21.3771 11.0914 0
123 1 24.9247 9.21103 0
124 1 27.5452 5.69785 0
125 1 25.7662 13.3422 0
126 1 5.22652 18.3782 0
127 1 16.2465 4.57004 0
128 1 24.2905 25.2875 0
129 1 20.2257 12.9702 0
130 1 5.53812 12.299 0
131 1 17.5527 5.65934 0
132 1 4.16444 22.4698 0
133 1 5.31446 22.009 0
134 1 8.00135 12.3637 0
135 1 3.03312 27.1799 0
136 1 16.7535 21.9297 0
137 1 26.2432 5.99303 0
138 1 25.6094 11.2405 0
139 1 0.266185 2.85238 0
140 1 0.621796 6.66979 0
141 1 4.79696 15.9912 0
142 1 9.31768 8.54754 0
143 1 20.9399 7.36531 0
144 1 29.3643 19.1726 0
145 1 19.3597 18.9107 0
146 1 9.31441 14.0162 0
147 1 2.76393 2.01964 0
148 1 19.848 26.2733 0
149 1 17.7775 27.9716 0
150 1 14.8445 8.03868 0
151 1 11.6927 14.2074 0
152 1 8.22162 6.77605 0
153 1 0.249101 28.9898 0
154 1 16.9082 1.53124 0
155 1 16.5947 3.60575 0
156 1 23.5143 16.0597 0
157 1 24.0934 16.9996 0
158 1 15.5556 12.5113 0
159 1 11.7734 17.999 0
160 1 26.7142 22.5078 0
161 1 15.9013 13.4356 0
162 1 9.54437 29.7815 0
163 1 23.9864 18.3095 0
164 1 18.3781 7.7646 0
165 1 11.3855 24.4982 0
166 1 3.52727 12.3816 0
167 1 21.6525 15.2623 0
168 1 28.6195 22.4506 0
169 1 5.84064 13.6942 0
170 1 26.94 20.6311 0
171 1 0.734232 18.6212 0
172 1 9.71873 10.0339 0
173 1 7.41723 4.69091 0
174 1 12.8665 6.00107 0
175 1 23.3963 7.94379 0
176 1 18.4962 5.15754 0
177 1 20.5671 19.8697 0
178 1 4.11064 20.5604 0
179 1 22.5821 22.404 0
180 1 26.7829 16.8752 0
181 1 4.74619 24.2684 0
182 1 5.06964 7.41324 0
183 1 28.3103 7.35287 0
184 1 29.4909 22.7754 0
185 1 12.8891 12.0879 0
186 1 7.96455 26.8796 0
187 1 3.48894 13.4106 0
188 1 0.204123 26.7684 0
189 1 24.5482 22.0861 0
190 1 29.2 23.5722 0
191 1 11.0122 3.27012 0
192 1 12.5591 7.46423 0
193 1 23.3253 24.0045 0
194 1 18.3749 1.07253 0
ITEM: TIMESTEP
1920
ITEM: NUMBER OF ATOMS
194
ITEM: BOX BOUNDS pp pp pp
0.0000000000000000e+00 3.0000000000000000e+01
0.0000000000000000e+00 3.0000000000000000e+01
-5.0000000000000000e-01 5.0000000000000000e-01
ITEM: ATOMS id type x y z
1 1 26.8572 3.88052 0
2 1 17.4756 6.74265 0
3 1 14.6411 24.9913 0
4 1 13.7032 23.1993 0
5 1 0.986466 26.7629 0
6 1 15.1077 1.06872 0
7 1 7.83214 28.9465 0
8 1 19.1576 22.8683 0
9 1 16.2045 28.603 0
10 1 11.3085 4.99851 0
11 1 2.07835 8.51378 0
12 1 27.3225 10.5483 0
13 1 18.7116 27.607 0
14 1 28.7215 -0.00582105 0
15 1 13.7024 0.554389 0
16 1 11.5067 16.3605 0
17 1 27.9433 25.8802 0
18 1 16.8707 11.5128 0
19 1 22.031 26.5941 0
20 1 10.5878 25.8324 0
21 1 14.6452 26.6544 0
22 1 19.8389 5.15513 0
23 1 7.02818 26.9998 0
24 1 23.7966 9.69113 0
25 1 1.69831 5.2261 0
26 1 24.2274 29.862 0
27 1 27.1515 14.9928 0
28 1 18.0853 24.8903 0
29 1 10.8903 8.71323 0
30 1 22.0693 27.9937 0
31 1 9.45187 3.09668 0
32 1 6.22742 0.596586 0
33 1 8.7928 27.2575 0
34 1 4.53381 13.6044 0
35 1 19.4683 1.35309 0
36 1 29.6379 17.9441 0
37 1 18.221 14.6214 0
38 1 23.1256 2.73979 0
39 1 26.2318 12.1985 0
40 1 15.8643 1.95128 0
41 1 28.9908 6.22852 0
42 1 23.9294 15.0118 0
43 1 5.25613 17.5392 0
44 1 0.23944 20.2215 0
45 1 28.8641 28.9624 0
46 1 2.917 7.43598 0
47 1 10.521 14.6153 0
48 1 4.84091 29.7722 0
49 1 28.0784 4.11485 0
50 1 7.09215 21.4155 0
51 1 29.3533 13.4242 0
52 1 3.30307 3.85189 0
53 1 7.89299 15.512 0
54 1 2.07457 19.6105 0
55 1 21.8502 13.4773 0
56 1 1.65607 1.60079 0
57 1 17.5563 12.023 0
58 1 0.511026 6.18806 0
59 1 19.2061 7.653 0
60 1 26.7005 26.3424 0
61 1 0.452542 9.79369 0
62 1 24.0164 6.96752 0
63 1 18.2919 29.5638 0
64 1 18.6551 21.2879 0
65 1 26.5516 17.8684 0
66 1 8.38908 19.8512 0
67 1 1.70853 21.4012 0
68 1 6.23011 15.395 0
69 1 17.5812 23.902 0
70 1 14.6924 20.4673 0
71 1 27.1395 25.0994 0
72 1 20.7988 25.3468 0
73 1 4.40875 28.7725 0
74 1 13.3639 6.85403 0
75 1 29.4282 24.8974 0
76 1 16.573 25.3742 0
77 1 7.70953 25.2556 0
78 1 7.70307 22.358 0
79 1 17.2311 13.7417 0
80 1 8.91366 4.13774 0
81 1 3.52224 1.24065 0
82 1 29.0863 0.964862 0
83 1 20.3421 8.43743 0
84 1 25.8094 28.3851 0
85 1 15.3502 5.37924 0
86 1 21.0016 23.8614 0
87 1 14.1013 21.2549 0
88 1 25.1123 21.4745 0
89 1 24.0746 19.8101 0
90 1 12.8932 29.367 0
91 1 14.7544 3.46547 0
92 1 26.1208 15.8902 0
93 1 24.5295 11.6083 0
94 1 3.93884 19.0419 0
95 1 19.5912 3.60884 0
96 1 2.09259 29.1132 0
97 1 21.2979 0.966357 0
98 1 12.9114 1.50258 0
99 1 11.4634 11.922 0
100 1 20.3332 18.965 0
101 1 11.9911 22.514 0
102 1 6.72869 3.70421 0
103 1 25.3532 17.409 0
104 1 17.8444 4.0864 0
105 1 15.7102 26.2879 0
106 1 9.81483 21.6131 0
107 1 10.8186 27.4667 0
108 1 5.16223 8.89839 0
109 1 18.1789 10.832 0
110 1 21.8637 28.8866 0
111 1 12.7901 0.515749 0
112 1 0.766296 7.84067 0
113 1 14.9793 10.8263 0
114 1 6.45334 6.53717 0
115 1 25.4828 0.160364 0
116 1 9.47875 1.81177 0
117 1 15.2381 6.99204 0
118 1 15.193 18.1526 0
119 1 29.4983 9.43624 0
120 1 16.4831 29.4386 0
121 1 23.1916 27.9679 0
122 1 21.9227 11.3043 0
123 1 25.0154 9.13356 0
124 1 27.8874 5.49004 0
125 1 26.1618 13.8641 0
126 1 5.21172 18.7489 0
127 1 16.0742 4.48802 0
128 1 24.3573 25.4 0
129 1 20.1143 12.8304 0
130 1 5.91155 12.1644 0
131 1 17.8243 5.55638 0
132 1 3.84091 22.4778 0
133 1 4.87633 21.9492 0
134 1 8.03623 12.6567 0
135 1 3.12237 27.3185 0
136 1 16.2211 22.0775 0
137 1 26.0408 6.01493 0
138 1 25.3756 11.0747 0
139 1 0.296533 2.78812 0
140 1 0.980905 6.96787 0
141 1 4.85643 16.0999 0
142 1 9.32594 8.74437 0
143 1 20.6589 7.67235 0
144 1 29.4552 18.9127 0
145 1 19.0913 18.4987 0
146 1 9.09966 13.6077 0
147 1 2.82799 2.02233 0
148 1 19.8369 25.9973 0
149 1 17.8297 27.973 0
150 1 15.0169 7.95736 0
151 1 11.2614 14.0552 0
152 1 8.26215 7.05983 0
153 1 0.578776 28.8925 0
154 1 17.1914 1.54618 0
155 1 16.6208 3.49134 0
156 1 23.4474 16.1955 0
157 1 24.0964 17.0571 0
158 1 15.7359 12.0113 0
159 1 11.8282 17.9381 0
160 1 26.7123 22.1807 0
161 1 15.975 13.6927 0
162 1 9.12493 29.602 0
163 1 23.9765 18.2919 0
164 1 18.3695 8.05889 0
165 1 10.9277 24.7157 0
166 1 3.72447 12.5657 0
167 1 21.5707 15.1044 0
168 1 28.8893 22.1981 0
169 1 5.91375 13.6525 0
170 1 27.015 20.7034 0
171 1 0.876893 18.571 0
172 1 9.40409 10.1445 0
173 1 7.6073 4.87034 0
174 1 12.3038 5.75865 0
175 1 23.5375 8.03364 0
176 1 18.716 5.07928 0
177 1 20.4567 20.0273 0
178 1 4.40319 20.4508 0
179 1 22.6379 22.5429 0
180 1 26.5442 16.8432 0
181 1 4.84581 23.9314 0
182 1 5.10871 6.73253 0
183 1 27.8475 7.46185 0
184 1 29.8264 22.5733 0
185 1 12.6255 12.2015 0
186 1 7.79536 27.0528 0
187 1 3.07731 13.7054 0
188 1 0.0639807 26.8736 0
189 1 24.707 22.3929 0
190 1 28.9785 23.5645 0
191 1 11.0628 3.99041 0
192 1 12.4024 7.27879 0
193 1 23.2927 24.0747 0
194 1 17.8615 1.15853 0
ITEM: TIMESTEP
1935
ITEM: NUMBER OF ATOMS
194
ITEM: BOX BOUNDS pp pp pp
0.0000000000000000e+00 3.0000000000000000e+01
0.0000000000000000e+00 3.0000000000000000e+01
-5.0000000000000000e-01 5.0000000000000000e-01
ITEM: ATOMS id type x y z
1 1 26.8511 3.94161 0
2 1 17.4468 6.93013 0
3 1 14.8178 25.3137 0
4 1 13.4074 23.4705 0
5 1 0.926755 26.4491 0
6 1 15.4583 1.5233 0
7 1 8.00856 29.2448 0
8 1 18.9206 23.038 0
9 1 15.972 28.576 0
10 1 10.9684 5.40581 0
11 1 2.19377 8.12384 0
12 1 27.6626 10.8681 0
13 1 18.9362 27.239 0
14 1 28.8148 29.9127 0
15 1 13.5853 0.37894 0
16 1 11.6559 16.5546 0
17 1 27.8483 25.8392 0
18 1 16.8281 11.123 0
19 1 22.1667 26.6468 0
20 1 10.4887 25.9564 0
21 1 14.6622 26.6281 0
22 1 19.8146 5.39626 0
23 1 6.90775 26.8405 0
24 1 23.8911 9.73449 0
25 1 1.75589 4.93716 0
26 1 24.3416 30.0219 0
27 1 27.164 14.697 0
28 1 18.0423 24.4006 0
29 1 10.9315 8.67771 0
30 1 22.2268 27.8165 0
31 1 9.82325 2.63714 0
32 1 6.26804 0.409678 0
33 1 9.09525 27.2648 0
34 1 4.63553 13.328 0
35 1 19.3347 1.5109 0
36 1 29.8028 17.9636 0
37 1 18.1075 14.8842 0
38 1 23.0348 2.77923 0
39 1 26.0065 12.0374 0
40 1 16.1621 1.90257 0
41 1 28.9859 5.81765 0
42 1 24.1002 15.1026 0
43 1 5.5278 17.8129 0
44 1 0.162286 20.1388 0
45 1 29.3086 28.6105 0
46 1 2.95853 7.50387 0
47 1 10.7125 14.9321 0
48 1 4.3514 29.9739 0
49 1 27.8562 4.35734 0
50 1 7.50266 21.2425 0
51 1 29.5939 13.2571 0
52 1 3.11357 4.14686 0
53 1 8.02718 15.7158 0
54 1 2.41459 19.5099 0
55 1 22.0603 13.1247 0
56 1 1.45943 1.66244 0
57 1 17.7904 11.7832 0
58 1 0.410039 6.78087 0
59 1 19.0093 7.28328 0
60 1 26.9753 26.2645 0
61 1 0.95438 9.82013 0
62 1 24.2326 7.11194 0
63 1 18.1511 29.2059 0
64 1 18.3522 21.6133 0
65 1 26.4434 17.7703 0
66 1 8.49302 19.733 0
67 1 1.49326 21.3489 0
68 1 6.45999 15.5262 0
69 1 17.1545 23.5739 0
70 1 14.5025 20.5394 0
71 1 27.1849 25.1284 0
72 1 20.7897 25.3114 0
73 1 4.12787 28.759 0
74 1 13.582 6.66009 0
75 1 29.2714 24.9712 0
76 1 16.5164 25.2353 0
77 1 7.54948 25.2204 0
78 1 7.52077 22.3216 0
79 1 17.3209 13.2705 0
80 1 9.00622 3.93551 0
81 1 3.59791 1.62113 0
82 1 29.183 1.14952 0
83 1 20.3395 8.6929 0
84 1 25.9642 28.0772 0
85 1 15.348 5.53672 0
86 1 21.1317 23.7174 0
87 1 14.0265 21.3612 0
88 1 25.3398 21.5265 0
89 1 23.7662 19.8829 0
90 1 12.7768 29.437 0
91 1 14.6985 3.91589 0
92 1 26.7131 15.6648 0
93 1 24.4732 11.5399 0
94 1 3.85218 18.7091 0
95 1 19.7252 3.53182 0
96 1 2.17678 29.2476 0
97 1 21.6065 0.791002 0
98 1 13.0037 1.07692 0
99 1 11.6127 12.5294 0
100 1 20.5618 19.2477 0
101 1 12.0788 22.8538 0
102 1 6.56385 4.00895 0
103 1 25.5197 17.6234 0
104 1 17.3273 3.84627 0
105 1 15.8799 25.8158 0
106 1 9.87606 21.9513 0
107 1 10.681 27.6718 0
108 1 5.12257 8.92258 0
109 1 17.9845 10.8903 0
110 1 21.4069 28.5967 0
111 1 12.5021 0.223965 0
112 1 0.651425 7.83564 0
113 1 14.9991 10.5012 0
114 1 6.20842 6.94918 0
115 1 25.8227 0.263908 0
116 1 9.119 2.02964 0
117 1 15.1919 6.61184 0
118 1 15.6934 18.2664 0
119 1 28.9891 9.81395 0
120 1 16.4349 29.6135 0
121 1 23.2949 27.8752 0
122 1 22.4683 11.5175 0
123 1 25.1014 9.05788 0
124 1 28.2294 5.28068 0
125 1 26.3926 14.2636 0
126 1 5.19236 19.1165 0
127 1 15.9002 4.40808 0
128 1 24.4233 25.5115 0
129 1 20.0036 12.6907 0
130 1 6.28476 12.0328 0
131 1 18.0616 5.46309 0
132 1 3.52055 22.4849 0
133 1 4.43534 21.8894 0
134 1 8.06489 12.9479 0
135 1 3.2116 27.4578 0
136 1 15.6885 22.2251 0
137 1 25.8392 6.03665 0
138 1 25.1911 10.878 0
139 1 0.327382 2.72309 0
140 1 1.60522 6.99912 0
141 1 4.91858 16.2101 0
142 1 9.33612 8.94449 0
143 1 20.6551 7.21891 0
144 1 29.4714 18.9805 0
145 1 18.7556 18.0922 0
146 1 8.89203 13.202 0
147 1 2.80689 2.09338 0
148 1 19.8265 25.7203 0
149 1 17.2145 28.191 0
150 1 15.1238 8.05347 0
151 1 10.9335 13.7918 0
152 1 8.30224 7.34362 0
153 1 0.909401 28.7953 0
154 1 17.0195 1.93407 0
155 1 16.6372 3.36858 0
156 1 23.3777 16.3207 0
157 1 24.1082 17.1268 0
158 1 15.9183 11.5083 0
159 1 11.8826 17.8754 0
160 1 26.7098 21.8506 0
161 1 16.0536 13.9484 0
162 1 8.76826 29.4429 0
163 1 23.9684 18.2705 0
164 1 18.2528 8.39085 0
165 1 10.4691 24.9334 0
166 1 3.91919 12.7516 0
167 1 21.4894 14.9451 0
168 1 29.0467 21.9044 0
169 1 5.98307 13.6088 0
170 1 27.0892 20.7785 0
171 1 1.01446 18.522 0
172 1 9.0896 10.2512 0
173 1 7.79775 5.04663 0
174 1 11.7719 5.52985 0
175 1 23.6812 8.12169 0
176 1 18.9639 4.99965 0
177 1 20.345 20.2048 0
178 1 4.69562 20.3396 0
179 1 22.6942 22.6833 0
180 1 26.3036 16.7922 0
181 1 4.9449 23.5932 0
182 1 5.15128 6.05224 0
183 1 27.3856 7.56916 0
184 1 0.281878 22.3988 0
185 1 12.4637 12.3094 0
186 1 8.00233 27.2428 0
187 1 2.66991 13.998 0
188 1 29.7609 26.9825 0
189 1 24.7536 22.9409 0
190 1 28.7505 23.5737 0
191 1 11.0478 4.19629 0
192 1 11.9406 7.25293 0
193 1 23.2603 24.1444 0
194 1 18.0407 0.864366 0
ITEM: TIMESTEP
1950
ITEM: NUMBER OF ATOMS
194
ITEM: BOX BOUNDS pp pp pp
0.0000000000000000e+00 3.0000000000000000e+01
0.0000000000000000e+00 3.0000000000000000e+01
-5.0000000000000000e-01 5.0000000000000000e-01
ITEM: ATOMS id type x y z
1 1 26.8329 3.99609 0
2 1 17.4212 7.11705 0
3 1 14.9001 25.6144 0
4 1 13.109 23.7402 0
5 1 0.868838 26.1356 0
6 1 15.0689 1.55047 0
7 1 7.52266 29.3554 0
8 1 18.6813 23.2072 0
9 1 15.6923 28.4307 0
10 1 10.2533 6.07647 0
11 1 2.18995 7.81922 0
12 1 28.0035 11.1868 0
13 1 19.1604 26.8707 0
14 1 28.9105 29.8318 0
15 1 13.6315 0.0699531 0
16 1 11.8055 16.7519 0
17 1 27.9512 25.7772 0
18 1 16.8257 10.6258 0
19 1 22.3021 26.6923 0
20 1 10.3912 26.1098 0
21 1 14.6826 26.5967 0
22 1 19.8829 5.68327 0
23 1 6.72653 26.6727 0
24 1 23.9899 9.77584 0
25 1 1.81536 4.64771 0
26 1 24.4585 0.182104 0
27 1 27.8533 14.7958 0
28 1 17.996 23.9074 0
29 1 10.9715 8.64161 0
30 1 22.3947 27.6046 0
31 1 10.2643 2.26553 0
32 1 6.30852 0.222356 0
33 1 9.77216 27.3107 0
34 1 4.92311 13.1746 0
35 1 19.1984 1.66766 0
36 1 30.0352 17.7405 0
37 1 17.9932 15.146 0
38 1 22.9439 2.81859 0
39 1 25.7779 11.8729 0
40 1 16.2229 2.2633 0
41 1 29.2042 5.56772 0
42 1 24.2693 15.1968 0
43 1 5.79759 18.0899 0
44 1 0.0845393 20.0536 0
45 1 29.754 28.2601 0
46 1 3.1159 7.50005 0
47 1 10.8732 15.2939 0
48 1 3.8612 0.172072 0
49 1 27.5929 4.53844 0
50 1 7.91204 21.0621 0
51 1 29.8345 13.09 0
52 1 2.92193 4.44253 0
53 1 8.15946 15.9194 0
54 1 2.75481 19.4082 0
55 1 22.2705 12.771 0
56 1 1.26482 1.72681 0
57 1 18.0772 11.8012 0
58 1 0.247599 7.22644 0
59 1 18.8156 6.9122 0
60 1 27.1068 26.2602 0
61 1 1.45536 9.84586 0
62 1 24.448 7.25873 0
63 1 18.0069 28.8469 0
64 1 18.0501 21.9411 0
65 1 26.5193 17.7412 0
66 1 8.59652 19.6155 0
67 1 1.27609 21.2973 0
68 1 6.69047 15.6577 0
69 1 16.731 23.249 0
70 1 14.392 20.4852 0
71 1 27.1775 25.1041 0
72 1 20.8008 25.2678 0
73 1 3.84619 28.7482 0
74 1 13.8007 6.46642 0
75 1 29.1123 25.0438 0
76 1 16.846 24.7301 0
77 1 7.38913 25.1865 0
78 1 7.34023 22.2918 0
79 1 17.409 12.799 0
80 1 9.09929 3.7316 0
81 1 3.84577 1.87847 0
82 1 29.2791 1.33094 0
83 1 20.2879 9.08656 0
84 1 26.1192 27.7692 0
85 1 15.3869 5.51938 0
86 1 21.262 23.5748 0
87 1 13.873 21.5947 0
88 1 25.5703 21.5809 0
89 1 23.4581 19.9542 0
90 1 12.7938 29.1546 0
91 1 14.647 4.36861 0
92 1 27.2696 15.4867 0
93 1 24.3618 11.5197 0
94 1 3.76848 18.3783 0
95 1 19.8583 3.45652 0
96 1 2.25765 29.3801 0
97 1 21.9149 0.615561 0
98 1 13.0489 0.952097 0
99 1 11.4321 13.1788 0
100 1 20.801 19.475 0
101 1 12.1692 23.1948 0
102 1 6.4003 4.31494 0
103 1 25.5077 17.8186 0
104 1 17.1548 3.86119 0
105 1 15.7557 25.7351 0
106 1 9.93721 22.2894 0
107 1 10.542 27.8756 0
108 1 5.08301 8.94656 0
109 1 17.8099 10.7483 0
110 1 20.9291 28.3483 0
111 1 11.965 0.117525 0
112 1 0.501204 8.08669 0
113 1 15.0224 10.1793 0
114 1 5.96078 7.3596 0
115 1 26.1599 0.366743 0
116 1 8.68858 2.16269 0
117 1 15.1042 6.4034 0
118 1 16.1938 18.3802 0
119 1 28.4797 10.193 0
120 1 16.4332 29.9051 0
121 1 23.4089 27.7828 0
122 1 23.014 11.7321 0
123 1 25.1828 8.98397 0
124 1 28.4022 4.97934 0
125 1 25.9805 14.2181 0
126 1 5.17701 19.4563 0
127 1 15.7253 4.32652 0
128 1 24.4888 25.6224 0
129 1 19.8932 12.551 0
130 1 6.65776 11.9034 0
131 1 18.2626 5.38992 0
132 1 3.19581 22.4959 0
133 1 3.99973 21.825 0
134 1 7.79522 13.1766 0
135 1 3.30173 27.599 0
136 1 15.1554 22.3724 0
137 1 25.6374 6.05871 0
138 1 25.0637 10.6343 0
139 1 0.359615 2.65605 0
140 1 2.32874 6.90745 0
141 1 4.98233 16.321 0
142 1 9.34674 9.14835 0
143 1 20.6975 6.62614 0
144 1 29.4276 19.2951 0
145 1 18.4204 17.6859 0
146 1 8.98247 12.8588 0
147 1 2.6101 2.286 0
148 1 19.7963 25.451 0
149 1 16.6044 28.4131 0
150 1 15.2306 8.14702 0
151 1 10.6243 13.4905 0
152 1 8.34233 7.6277 0
153 1 1.24221 28.6991 0
154 1 17.8085 2.3242 0
155 1 16.3097 3.0189 0
156 1 23.306 16.4387 0
157 1 24.1268 17.2031 0
158 1 15.9839 11.0549 0
159 1 11.9363 17.8088 0
160 1 26.6868 21.5509 0
161 1 16.1354 14.2027 0
162 1 9.07364 29.4708 0
163 1 23.9615 18.2481 0
164 1 18.1332 8.72234 0
165 1 10.0083 25.1232 0
166 1 3.93142 12.8164 0
167 1 21.4085 14.7852 0
168 1 29.2068 21.6129 0
169 1 6.0487 13.5628 0
170 1 27.18 20.8228 0
171 1 1.14675 18.4728 0
172 1 8.77605 10.3533 0
173 1 7.98805 5.22097 0
174 1 11.6512 5.37638 0
175 1 23.8274 8.20957 0
176 1 19.1547 4.854 0
177 1 20.2222 20.4374 0
178 1 4.9809 20.2523 0
179 1 22.7511 22.8259 0
180 1 26.0551 16.6937 0
181 1 5.04312 23.2537 0
182 1 5.19686 5.37364 0
183 1 26.9238 7.6761 0
184 1 0.73527 22.2219 0
185 1 12.6439 12.3684 0
186 1 7.89763 27.4019 0
187 1 2.26377 14.2895 0
188 1 29.4555 27.0925 0
189 1 24.8004 23.4872 0
190 1 28.5239 23.5838 0
191 1 10.9965 4.06473 0
192 1 11.4793 7.22599 0
193 1 23.228 24.2125 0
194 1 18.2335 0.563577 0
ITEM: TIMESTEP
1965
ITEM: NUMBER OF ATOMS
194
ITEM: BOX BOUNDS pp pp pp
0.0000000000000000e+00 3.0000000000000000e+01
0.0000000000000000e+00 3.0000000000000000e+01
-5.0000000000000000e-01 5.0000000000000000e-01
ITEM: ATOMS id type x y z
1 1 26.686 3.9479 0
2 1 17.3993 7.30377 0
3 1 14.625 25.7308 0
4 1 12.8752 24.0557 0
5 1 0.809359 25.8229 0
6 1 14.6569 1.56471 0
7 1 7.0219 29.4616 0
8 1 18.6938 23.1828 0
9 1 15.2046 28.2726 0
10 1 9.52084 6.74709 0
11 1 2.04792 7.67741 0
12 1 28.3431 11.5288 0
13 1 19.3856 26.5005 0
14 1 29.0072 29.7522 0
15 1 13.7031 29.7158 0
16 1 11.9499 16.8956 0
17 1 28.2273 25.6698 0
18 1 16.8875 10.0323 0
19 1 22.4188 26.5573 0
20 1 10.2973 26.2786 0
21 1 14.6948 26.6732 0
22 1 19.9093 5.95969 0
23 1 6.54937 26.5055 0
24 1 24.0939 9.81646 0
25 1 1.85675 4.35522 0
26 1 24.5766 0.342446 0
27 1 28.66 14.7441 0
28 1 17.6954 23.5987 0
29 1 11.0112 8.60344 0
30 1 22.5511 27.5705 0
31 1 10.7051 1.89587 0
32 1 6.34836 0.0356513 0
33 1 10.289 27.1711 0
34 1 5.30079 13.0711 0
35 1 19.0589 1.82346 0
36 1 0.270867 17.5219 0
37 1 17.8786 15.4076 0
38 1 22.853 2.85786 0
39 1 25.5447 11.7049 0
40 1 16.2223 1.84245 0
41 1 29.5721 5.42706 0
42 1 24.4377 15.2929 0
43 1 6.06542 18.3695 0
44 1 0.092451 20.0478 0
45 1 30.1998 27.9074 0
46 1 3.4718 7.50511 0
47 1 11.0345 15.6553 0
48 1 3.36996 0.367379 0
49 1 27.3276 4.72733 0
50 1 8.32087 20.8833 0
51 1 30.0751 12.9229 0
52 1 2.74839 4.74112 0
53 1 8.28907 16.1225 0
54 1 3.09668 19.3041 0
55 1 22.4832 12.414 0
56 1 1.06998 1.79501 0
57 1 18.3679 11.8986 0
58 1 0.00436043 7.37859 0
59 1 18.6194 6.53905 0
60 1 27.0973 26.3315 0
61 1 1.95619 9.87101 0
62 1 24.6638 7.40651 0
63 1 17.8595 28.4879 0
64 1 17.7493 22.2732 0
65 1 26.7057 17.7196 0
66 1 8.69928 19.4996 0
67 1 1.07519 21.1694 0
68 1 6.92284 15.7898 0
69 1 16.3112 22.9274 0
70 1 14.2822 20.4309 0
71 1 27.1387 25.0505 0
72 1 20.8421 25.2174 0
73 1 3.56199 28.7389 0
74 1 14.0201 6.27162 0
75 1 28.9521 25.1149 0
76 1 17.1735 24.2252 0
77 1 7.22818 25.1544 0
78 1 7.16102 22.2589 0
79 1 17.4924 12.3292 0
80 1 9.19243 3.52627 0
81 1 4.09452 2.1337 0
82 1 29.3759 1.5111 0
83 1 20.2361 9.47997 0
84 1 26.2747 27.4605 0
85 1 15.509 5.18617 0
86 1 21.3936 23.4327 0
87 1 13.7213 21.8304 0
88 1 25.748 21.6444 0
89 1 23.1503 20.0246 0
90 1 12.8312 28.842 0
91 1 14.5897 4.82423 0
92 1 27.7069 15.4598 0
93 1 24.2606 11.497 0
94 1 3.68413 18.0504 0
95 1 19.9901 3.38268 0
96 1 2.33659 29.5095 0
97 1 22.2234 0.440142 0
98 1 13.0616 0.866561 0
99 1 11.4453 13.7554 0
100 1 21.0424 19.6952 0
101 1 12.195 23.4898 0
102 1 6.23639 4.62235 0
103 1 25.3836 18.0068 0
104 1 17.042 3.92526 0
105 1 15.9965 25.732 0
106 1 9.99835 22.6275 0
107 1 10.5624 28.2666 0
108 1 5.04386 8.96961 0
109 1 17.7215 10.5481 0
110 1 20.453 28.0987 0
111 1 11.4149 0.0473222 0
112 1 0.434305 8.63073 0
113 1 15.0499 9.8605 0
114 1 5.7125 7.77047 0
115 1 26.4959 0.469401 0
116 1 8.25852 2.29629 0
117 1 14.9337 6.51179 0
118 1 16.6943 18.4939 0
119 1 27.9714 10.5489 0
120 1 16.4318 0.192936 0
121 1 23.5511 27.6937 0
122 1 23.5461 11.9561 0
123 1 25.2595 8.91153 0
124 1 28.5562 4.66417 0
125 1 25.5686 14.1737 0
126 1 5.26725 19.3481 0
127 1 15.5592 4.23993 0
128 1 24.5538 25.7327 0
129 1 19.7822 12.4112 0
130 1 7.03103 11.7759 0
131 1 18.4452 5.33044 0
132 1 2.85713 22.5188 0
133 1 3.57909 21.7487 0
134 1 7.45883 13.3986 0
135 1 3.39296 27.743 0
136 1 14.6205 22.5183 0
137 1 25.4351 6.08181 0
138 1 24.9393 10.3864 0
139 1 0.39396 2.58536 0
140 1 2.98933 6.64454 0
141 1 5.04694 16.4322 0
142 1 9.35618 9.35534 0
143 1 20.7974 6.05805 0
144 1 29.3001 19.5299 0
145 1 18.085 17.2796 0
146 1 9.13907 12.5221 0
147 1 2.40944 2.47877 0
148 1 19.7354 25.1897 0
149 1 16.2054 28.6528 0
150 1 15.3373 8.23966 0
151 1 10.1178 13.263 0
152 1 8.38283 7.91222 0
153 1 1.57734 28.605 0
154 1 18.5986 2.7151 0
155 1 16.0037 3.41588 0
156 1 23.2353 16.5553 0
157 1 24.1514 17.2625 0
158 1 15.8962 10.6712 0
159 1 11.9946 17.795 0
160 1 26.5879 21.4358 0
161 1 16.218 14.4567 0
162 1 9.39471 29.5017 0
163 1 23.9528 18.2433 0
164 1 18.0134 9.05293 0
165 1 9.54333 25.2966 0
166 1 3.84966 12.8289 0
167 1 21.3276 14.6252 0
168 1 29.369 21.3212 0
169 1 6.11971 13.5183 0
170 1 27.3996 20.674 0
171 1 1.27488 18.4222 0
172 1 8.46439 10.4514 0
173 1 8.17822 5.39451 0
174 1 11.5476 5.22126 0
175 1 23.9764 8.29917 0
176 1 19.3471 4.682 0
177 1 20.0971 20.6772 0
178 1 5.16034 20.6099 0
179 1 22.8078 22.9721 0
180 1 25.8045 16.5926 0
181 1 5.14051 22.9133 0
182 1 5.24367 4.69444 0
183 1 26.4613 7.78294 0
184 1 1.1699 22.1197 0
185 1 12.8264 12.4273 0
186 1 7.79063 27.5593 0
187 1 1.85782 14.5808 0
188 1 29.1521 27.2051 0
189 1 24.8463 24.0336 0
190 1 28.298 23.5958 0
191 1 10.9456 3.93588 0
192 1 11.0165 7.19993 0
193 1 23.1957 24.2776 0
194 1 18.4272 0.264511 0
ITEM: TIMESTEP
1980
ITEM: NUMBER OF ATOMS
194
ITEM: BOX BOUNDS pp pp pp
0.0000000000000000e+00 3.0000000000000000e+01
0.0000000000000000e+00 3.0000000000000000e+01
-5.0000000000000000e-01 5.0000000000000000e-01
ITEM: ATOMS id type x y z
1 1 26.4721 3.8341 0
2 1 17.3803 7.48951 0
3 1 14.3467 25.686 0
4 1 12.8474 24.5326 0
5 1 0.749155 25.5104 0
6 1 14.2459 1.57868 0
7 1 6.84991 29.2666 0
8 1 18.8867 23.0311 0
9 1 14.6297 28.0986 0
10 1 8.79046 7.41619 0
11 1 1.9065 7.53983 0
12 1 28.6847 11.902 0
13 1 19.6126 26.1264 0
14 1 29.1042 29.6732 0
15 1 13.7692 29.3614 0
16 1 12.0819 16.8434 0
17 1 28.2657 25.7556 0
18 1 16.8632 9.39817 0
19 1 22.5263 26.3383 0
20 1 10.1721 26.1823 0
21 1 14.707 26.9109 0
22 1 19.7036 6.17137 0
23 1 6.37469 26.3371 0
24 1 24.0928 9.79081 0
25 1 1.84151 4.04354 0
26 1 24.6951 0.502831 0
27 1 29.4736 14.6847 0
28 1 17.6144 23.2619 0
29 1 11.0501 8.562 0
30 1 22.677 27.6166 0
31 1 11.1459 1.52616 0
32 1 6.05976 0.149734 0
33 1 10.757 27.1827 0
34 1 5.54854 12.89 0
35 1 18.9281 1.95054 0
36 1 0.509687 17.3064 0
37 1 17.7637 15.6699 0
38 1 22.762 2.89709 0
39 1 25.3093 11.5342 0
40 1 16.2177 1.37531 0
41 1 29.9376 5.28495 0
42 1 24.6071 15.3892 0
43 1 6.33034 18.6523 0
44 1 0.229266 20.1462 0
45 1 0.644379 27.5533 0
46 1 3.88701 7.58958 0
47 1 11.1975 16.0181 0
48 1 2.8766 0.559875 0
49 1 27.1252 4.97939 0
50 1 8.72996 20.7022 0
51 1 0.315422 12.7558 0
52 1 2.63174 5.05868 0
53 1 8.4151 16.3248 0
54 1 3.44013 19.1965 0
55 1 22.6982 12.0556 0
56 1 0.914802 1.8149 0
57 1 18.7047 11.9728 0
58 1 29.7608 7.5282 0
59 1 18.4229 6.17142 0
60 1 27.0889 26.3988 0
61 1 2.45672 9.89566 0
62 1 24.8821 7.55483 0
63 1 17.7108 28.1298 0
64 1 17.4238 22.2436 0
65 1 26.8871 17.696 0
66 1 8.80123 19.387 0
67 1 0.883219 20.9032 0
68 1 7.15835 15.9227 0
69 1 15.895 22.6075 0
70 1 14.1713 20.3793 0
71 1 27.1038 25.0031 0
72 1 20.8884 25.1664 0
73 1 3.27661 28.7899 0
74 1 14.1017 6.02456 0
75 1 29.0239 24.9919 0
76 1 17.1207 24.2363 0
77 1 7.06625 25.1245 0
78 1 6.98212 22.2251 0
79 1 17.5307 11.8799 0
80 1 9.28518 3.31959 0
81 1 4.34175 2.38872 0
82 1 29.4757 1.69267 0
83 1 20.1841 9.87335 0
84 1 26.4318 27.1494 0
85 1 15.6938 5.08869 0
86 1 21.528 23.2906 0
87 1 13.5411 22.0352 0
88 1 25.6464 21.772 0
89 1 22.8422 20.0946 0
90 1 12.8717 28.5343 0
91 1 14.4979 5.26776 0
92 1 28.1372 15.4405 0
93 1 24.4253 11.2802 0
94 1 3.59869 17.726 0
95 1 20.1341 3.3151 0
96 1 2.41778 29.6352 0
97 1 22.5321 0.264768 0
98 1 13.0763 0.777235 0
99 1 11.4759 14.3288 0
100 1 21.2815 19.9183 0
101 1 12.0152 23.623 0
102 1 6.11164 4.93505 0
103 1 25.2576 18.1903 0
104 1 16.9243 3.98834 0
105 1 16.2412 25.7301 0
106 1 10.0596 22.9657 0
107 1 10.6594 28.77 0
108 1 5.0049 8.99173 0
109 1 17.7224 10.388 0
110 1 19.977 27.8485 0
111 1 10.8657 29.9764 0
112 1 0.368879 9.17695 0
113 1 15.0801 9.54153 0
114 1 5.4636 8.18202 0
115 1 26.8313 0.572017 0
116 1 7.82983 2.43151 0
117 1 14.9013 6.67275 0
118 1 17.1953 18.6072 0
119 1 27.4613 10.8737 0
120 1 16.4303 0.479341 0
121 1 23.7328 27.6082 0
122 1 23.8132 12.3693 0
123 1 25.3308 8.83875 0
124 1 28.7167 4.35338 0
125 1 25.1556 14.1308 0
126 1 5.36915 19.1879 0
127 1 15.1546 4.26698 0
128 1 24.6186 25.8416 0
129 1 19.6688 12.2705 0
130 1 7.40495 11.6497 0
131 1 18.6281 5.26756 0
132 1 2.50625 22.5525 0
133 1 3.16985 21.6613 0
134 1 7.1333 13.6201 0
135 1 3.48133 27.8306 0
136 1 14.1156 22.693 0
137 1 25.2321 6.10708 0
138 1 24.9213 10.2071 0
139 1 0.388186 2.56195 0
140 1 3.58934 6.29803 0
141 1 5.11189 16.5437 0
142 1 9.36356 9.56389 0
143 1 21.1221 5.55157 0
144 1 29.0442 19.6656 0
145 1 17.7491 16.8728 0
146 1 9.28932 12.1753 0
147 1 2.20735 2.67072 0
148 1 19.6683 24.9328 0
149 1 15.8947 28.9092 0
150 1 15.4436 8.33314 0
151 1 9.59948 13.0492 0
152 1 8.42339 8.19929 0
153 1 1.91456 28.5134 0
154 1 19.3651 3.13093 0
155 1 15.916 3.52211 0
156 1 23.1682 16.6736 0
157 1 24.1865 17.2759 0
158 1 15.806 10.2866 0
159 1 12.0637 17.9749 0
160 1 26.75 21.2787 0
161 1 16.3011 14.7109 0
162 1 9.71731 29.5316 0
163 1 23.9377 18.283 0
164 1 17.8918 9.38647 0
165 1 9.08092 25.4732 0
166 1 3.77088 12.8419 0
167 1 21.2468 14.4651 0
168 1 29.5341 21.0259 0
169 1 6.30776 13.5495 0
170 1 27.6379 20.503 0
171 1 1.39975 18.3692 0
172 1 8.15449 10.5475 0
173 1 8.36859 5.56809 0
174 1 11.4422 5.06338 0
175 1 24.1293 8.39238 0
176 1 19.5449 4.50897 0
177 1 19.9748 20.914 0
178 1 5.32986 21.0165 0
179 1 22.8633 23.1233 0
180 1 25.5537 16.4966 0
181 1 5.23766 22.5723 0
182 1 5.25155 4.01004 0
183 1 25.9962 7.89052 0
184 1 1.5937 22.1541 0
185 1 13.0083 12.4868 0
186 1 7.68225 27.716 0
187 1 1.45182 14.8721 0
188 1 28.8514 27.3187 0
189 1 24.8905 24.5815 0
190 1 28.0723 23.6099 0
191 1 10.8954 3.80971 0
192 1 10.552 7.17647 0
193 1 23.1634 24.3388 0
194 1 18.621 -0.0338641 0
ITEM: TIMESTEP
1995
ITEM: NUMBER OF ATOMS
194
ITEM: BOX BOUNDS pp pp pp
0.0000000000000000e+00 3.0000000000000000e+01
0.0000000000000000e+00 3.0000000000000000e+01
-5.0000000000000000e-01 5.0000000000000000e-01
ITEM: ATOMS id type x y z
1 1 26.2598 3.7231 0
2 1 17.3619 7.67552 0
3 1 14.0691 25.6407 0
4 1 12.8273 25.0157 0
5 1 0.688005 25.1981 0
6 1 13.8327 1.59034 0
7 1 6.78843 28.9659 0
8 1 19.0734 22.8797 0
9 1 14.0523 27.9305 0
10 1 8.20827 7.63448 0
11 1 1.76569 7.4021 0
12 1 29.0256 12.2741 0
13 1 19.8416 25.7481 0
14 1 29.2012 29.5945 0
15 1 13.8322 29.0031 0
16 1 12.2168 16.7726 0
17 1 28.1876 25.9386 0
18 1 16.8218 8.76562 0
19 1 22.6349 26.1229 0
20 1 10.025 26.0018 0
21 1 14.7213 27.1465 0
22 1 19.4883 6.3787 0
23 1 6.20236 26.1658 0
24 1 23.9087 9.66112 0
25 1 1.8247 3.73336 0
26 1 24.8137 0.663197 0
27 1 30.2856 14.6263 0
28 1 17.6593 23.5643 0
29 1 11.0876 8.51811 0
30 1 22.7843 27.6586 0
31 1 11.5866 1.1548 0
32 1 5.66126 0.368481 0
33 1 11.243 27.2781 0
34 1 5.71789 12.6462 0
35 1 18.8 2.07209 0
36 1 0.751045 17.0939 0
37 1 17.6801 15.7771 0
38 1 22.671 2.93632 0
39 1 25.3104 11.4449 0
40 1 16.0646 1.39486 0
41 1 0.301434 5.14146 0
42 1 24.7793 15.4852 0
43 1 6.59723 18.9345 0
44 1 0.228999 20.0365 0
45 1 1.08924 27.1997 0
46 1 4.30329 7.67314 0
47 1 11.3573 16.3788 0
48 1 2.39121 0.779073 0
49 1 26.9227 5.22836 0
50 1 9.13914 20.5165 0
51 1 0.555015 12.5888 0
52 1 2.51711 5.37682 0
53 1 8.53659 16.5255 0
54 1 3.78434 19.0861 0
55 1 22.9159 11.6979 0
56 1 0.858583 1.69721 0
57 1 18.8165 11.9816 0
58 1 29.5179 7.67877 0
59 1 18.1928 5.9316 0
60 1 27.2037 26.3408 0
61 1 2.95705 9.92014 0
62 1 24.9085 7.62044 0
63 1 17.562 27.7721 0
64 1 17.0366 21.4812 0
65 1 27.0664 17.6721 0
66 1 8.90294 19.2791 0
67 1 0.845856 20.8238 0
68 1 7.39815 16.0569 0
69 1 15.4809 22.2878 0
70 1 14.0601 20.3288 0
71 1 27.0732 24.9608 0
72 1 20.9289 25.1155 0
73 1 2.98613 28.915 0
74 1 13.8254 6.20361 0
75 1 29.2048 24.7724 0
76 1 17.0064 24.3417 0
77 1 6.90277 25.0981 0
78 1 6.80195 22.1911 0
79 1 17.5634 11.4305 0
80 1 9.37818 3.11269 0
81 1 4.58904 2.64443 0
82 1 29.5816 1.87693 0
83 1 20.1319 10.2668 0
84 1 26.4702 26.9574 0
85 1 15.9478 5.20901 0
86 1 21.6669 23.1488 0
87 1 13.1928 22.0495 0
88 1 25.5267 21.905 0
89 1 22.5323 20.1641 0
90 1 12.9171 28.2299 0
91 1 14.6842 5.24416 0
92 1 28.5696 15.42 0
93 1 24.3883 10.9412 0
94 1 3.51325 17.4042 0
95 1 20.9179 3.38674 0
96 1 2.48884 29.7301 0
97 1 22.841 0.0894185 0
98 1 13.0943 0.688033 0
99 1 11.5062 14.9031 0
100 1 21.5214 20.1427 0
101 1 11.8283 23.75 0
102 1 5.99779 5.24987 0
103 1 25.1258 18.3702 0
104 1 16.8072 4.05431 0
105 1 16.4853 25.7274 0
106 1 10.1211 23.3039 0
107 1 10.7823 29.2119 0
108 1 4.82697 9.25567 0
109 1 17.6859 10.4643 0
110 1 19.5006 27.5976 0
111 1 10.536 30.1011 0
112 1 0.303385 9.72198 0
113 1 15.0883 9.20386 0
114 1 5.35169 8.35039 0
115 1 27.1666 0.674589 0
116 1 7.40212 2.56741 0
117 1 14.9474 6.87397 0
118 1 17.6965 18.7198 0
119 1 26.9524 11.2 0
120 1 16.5763 0.277811 0
121 1 23.9321 27.522 0
122 1 24.0428 12.814 0
123 1 25.3732 8.81145 0
124 1 28.8775 4.04439 0
125 1 24.741 14.0912 0
126 1 5.46833 19.0291 0
127 1 14.5506 4.27145 0
128 1 24.6808 25.9576 0
129 1 19.786 12.1917 0
130 1 7.77848 11.5311 0
131 1 18.8545 5.07686 0
132 1 2.48159 22.7952 0
133 1 2.76066 21.5726 0
134 1 7.29364 13.8942 0
135 1 3.57672 27.8466 0
136 1 13.7797 23.0574 0
137 1 25.0288 6.13524 0
138 1 25.0896 10.1317 0
139 1 0.280163 2.67462 0
140 1 4.18821 5.95282 0
141 1 5.1767 16.6554 0
142 1 9.36868 9.77215 0
143 1 21.4481 5.04527 0
144 1 28.7885 19.8049 0
145 1 17.3807 16.6211 0
146 1 9.40433 11.7321 0
147 1 2.00323 2.86024 0
148 1 19.6056 24.6803 0
149 1 15.5824 29.1655 0
150 1 15.5531 8.42356 0
151 1 9.11576 12.9313 0
152 1 8.31776 8.93819 0
153 1 2.25045 28.4225 0
154 1 19.4871 3.41791 0
155 1 15.9597 3.4318 0
156 1 23.1059 16.7946 0
157 1 24.2284 17.2621 0
158 1 15.7403 9.92066 0
159 1 12.1332 18.1742 0
160 1 26.9336 21.1134 0
161 1 16.3852 14.9657 0
162 1 9.7952 29.4269 0
163 1 23.9207 18.3474 0
164 1 17.8193 9.48611 0
165 1 8.62222 25.6526 0
166 1 3.69309 12.8551 0
167 1 21.166 14.305 0
168 1 29.6808 20.7504 0
169 1 6.08775 13.5901 0
170 1 27.8751 20.3339 0
171 1 1.52227 18.3134 0
172 1 7.84715 10.6356 0
173 1 8.55903 5.74214 0
174 1 11.3352 4.90181 0
175 1 24.2876 8.49111 0
176 1 19.7421 4.33579 0
177 1 19.8536 21.1499 0
178 1 5.50055 21.4179 0
179 1 22.9156 23.2798 0
180 1 25.2995 16.4012 0
181 1 5.33473 22.2353 0
182 1 5.24821 3.3228 0
183 1 25.7443 8.03566 0
184 1 1.69014 21.9793 0
185 1 13.1901 12.5462 0
186 1 7.57283 27.8732 0
187 1 1.04527 15.1633 0
188 1 28.5509 27.431 0
189 1 24.9359 25.1226 0
190 1 27.8466 23.6264 0
191 1 10.8456 3.68684 0
192 1 10.0873 7.15561 0
193 1 23.1305 24.3954 0
194 1 18.8145 29.6679 0
ITEM: TIMESTEP
2010
ITEM: NUMBER OF ATOMS
194
ITEM: BOX BOUNDS pp pp pp
0.0000000000000000e+00 3.0000000000000000e+01
0.0000000000000000e+00 3.0000000000000000e+01
-5.0000000000000000e-01 5.0000000000000000e-01
ITEM: ATOMS id type x y z
1 1 26.0483 3.61364 0
2 1 17.4451 7.76003 0
3 1 13.7905 25.596 0
4 1 12.8079 25.4982 0
5 1 0.624637 24.8854 0
6 1 13.4183 1.6016 0
7 1 6.72709 28.6644 0
8 1 19.2585 22.7291 0
9 1 13.6517 27.7016 0
10 1 7.65626 7.73446 0
11 1 1.62488 7.26414 0
12 1 29.3683 12.6464 0
13 1 20.0716 25.374 0
14 1 29.298 29.5159 0
15 1 13.8945 28.6634 0
16 1 12.4552 16.7439 0
17 1 28.2501 26.0854 0
18 1 16.6764 8.23785 0
19 1 22.7445 25.9092 0
20 1 9.87575 25.8214 0
21 1 14.7446 27.3666 0
22 1 19.2678 6.58172 0
23 1 6.03301 25.9904 0
24 1 23.7282 9.52935 0
25 1 1.74007 3.80021 0
26 1 24.9321 0.823467 0
27 1 0.90165 14.3135 0
28 1 17.7274 23.8405 0
29 1 11.1242 8.47329 0
30 1 22.8931 27.698 0
31 1 12.0274 0.780831 0
32 1 5.26355 0.586308 0
33 1 11.7287 27.3733 0
34 1 5.87113 12.3729 0
35 1 18.6732 2.19611 0
36 1 0.994175 16.8832 0
37 1 17.7023 15.4582 0
38 1 22.579 2.97589 0
39 1 25.434 11.4017 0
40 1 15.8465 1.6131 0
41 1 0.664987 4.99713 0
42 1 24.9195 15.4907 0
43 1 6.86371 19.2161 0
44 1 0.178751 19.5945 0
45 1 1.53494 26.8467 0
46 1 4.71311 7.74992 0
47 1 11.4137 16.6983 0
48 1 1.90755 1.02213 0
49 1 26.7193 5.47583 0
50 1 9.54731 20.3257 0
51 1 0.792553 12.4218 0
52 1 2.40251 5.69451 0
53 1 8.65338 16.7243 0
54 1 4.12966 18.9744 0
55 1 23.1369 11.3406 0
56 1 0.807863 1.56902 0
57 1 18.6761 11.9252 0
58 1 29.2752 7.82953 0
59 1 17.9475 5.73357 0
60 1 27.3281 26.1736 0
61 1 3.4582 9.94433 0
62 1 24.5461 7.49815 0
63 1 17.4136 27.4145 0
64 1 16.6488 20.72 0
65 1 27.2452 17.6482 0
66 1 9.00552 19.1763 0
67 1 0.962694 20.9331 0
68 1 7.64247 16.1929 0
69 1 15.0669 21.9679 0
70 1 13.9487 20.2789 0
71 1 27.0462 24.9226 0
72 1 20.9668 25.0637 0
73 1 2.97728 29.0934 0
74 1 13.4807 6.49633 0
75 1 29.3854 24.5548 0
76 1 16.8699 24.4745 0
77 1 6.73734 25.0761 0
78 1 6.61673 22.1558 0
79 1 17.5376 11.4976 0
80 1 9.47263 2.90638 0
81 1 4.41192 2.59665 0
82 1 29.6737 2.03615 0
83 1 20.0792 10.6611 0
84 1 26.3586 26.9053 0
85 1 16.1969 5.32559 0
86 1 21.8114 23.0083 0
87 1 12.8293 22.0435 0
88 1 25.4087 22.0371 0
89 1 22.4943 20.2177 0
90 1 12.7771 27.9827 0
91 1 14.9527 5.14467 0
92 1 29.0028 15.3991 0
93 1 24.2214 10.5542 0
94 1 3.42847 17.0834 0
95 1 21.768 3.47222 0
96 1 2.48689 29.9178 0
97 1 23.1502 29.9141 0
98 1 13.1115 0.598927 0
99 1 11.5364 15.4809 0
100 1 21.489 20.3831 0
101 1 11.6422 23.878 0
102 1 5.88263 5.56438 0
103 1 24.9879 18.5468 0
104 1 16.7007 4.13278 0
105 1 16.7301 25.7223 0
106 1 10.1837 23.6424 0
107 1 10.9887 29.4704 0
108 1 4.56577 9.66174 0
109 1 17.6721 10.291 0
110 1 19.0237 27.3462 0
111 1 10.5688 0.655698 0
112 1 0.23784 10.2668 0
113 1 14.9185 8.97961 0
114 1 5.32847 8.38233 0
115 1 27.5019 0.777085 0
116 1 6.97448 2.70351 0
117 1 14.9909 7.07283 0
118 1 18.1977 18.8321 0
119 1 26.4418 11.5264 0
120 1 16.7856 29.8761 0
121 1 24.1299 27.4344 0
122 1 24.2695 13.243 0
123 1 25.288 9.05931 0
124 1 29.0394 3.73544 0
125 1 24.3283 14.0684 0
126 1 5.56662 18.871 0
127 1 13.9451 4.24086 0
128 1 24.6415 26.3821 0
129 1 20.151 12.1752 0
130 1 8.15336 11.5824 0
131 1 19.1023 4.84623 0
132 1 2.67252 23.1815 0
133 1 2.38436 21.4781 0
134 1 7.53586 14.1798 0
135 1 3.6682 27.8643 0
136 1 13.4595 23.4419 0
137 1 24.8256 6.16656 0
138 1 25.2648 10.0526 0
139 1 0.183863 2.82446 0
140 1 4.7873 5.60824 0
141 1 5.24101 16.7676 0
142 1 9.36968 9.9792 0
143 1 21.773 4.53718 0
144 1 28.7596 19.8254 0
145 1 16.9039 16.7941 0
146 1 9.51485 11.2774 0
147 1 1.86444 2.67202 0
148 1 19.5447 24.4242 0
149 1 15.2703 29.4229 0
150 1 15.7871 8.34329 0
151 1 8.63364 12.8234 0
152 1 8.18555 9.79849 0
153 1 2.37776 28.1602 0
154 1 19.4659 3.50122 0
155 1 15.989 3.33372 0
156 1 23.0491 16.9182 0
157 1 24.2712 17.2447 0
158 1 15.7321 9.60993 0
159 1 12.2028 18.3694 0
160 1 27.1192 20.946 0
161 1 16.4718 15.2222 0
162 1 9.42956 29.0772 0
163 1 23.9072 18.412 0
164 1 17.7854 9.31784 0
165 1 8.16566 25.8326 0
166 1 3.61575 12.8682 0
167 1 21.0852 14.1448 0
168 1 29.7178 20.6154 0
169 1 5.80203 13.6485 0
170 1 27.889 20.2912 0
171 1 1.64321 18.2552 0
172 1 7.54225 10.5531 0
173 1 8.74968 5.91698 0
174 1 11.2263 4.7357 0
175 1 24.4363 8.60099 0
176 1 20.0154 4.35403 0
177 1 19.7327 21.3863 0
178 1 5.81301 21.2497 0
179 1 22.9627 23.4351 0
180 1 25.0738 16.3966 0
181 1 5.29503 22.4691 0
182 1 5.6699 2.93951 0
183 1 26.0151 8.08909 0
184 1 1.5367 21.6653 0
185 1 13.372 12.6057 0
186 1 7.46236 28.0319 0
187 1 0.833884 15.7098 0
188 1 28.2491 27.5406 0
189 1 25.0817 25.3565 0
190 1 27.6204 23.6456 0
191 1 10.7959 3.56777 0
192 1 9.62251 7.13566 0
193 1 23.0974 24.4538 0
194 1 19.0078 29.3694 0
ITEM: TIMESTEP
2025
ITEM: NUMBER OF ATOMS
194
ITEM: BOX BOUNDS pp pp pp
0.0000000000000000e+00 3.0000000000000000e+01
0.0000000000000000e+00 3.0000000000000000e+01
-5.0000000000000000e-01 5.0000000000000000e-01
ITEM: ATOMS id type x y z
1 1 25.8369 3.50464 0
2 1 17.8227 7.59281 0
3 1 13.6056 25.5435 0
4 1 12.6946 25.9889 0
5 1 0.558083 24.572 0
6 1 13.0061 1.62464 0
7 1 6.54286 28.4442 0
8 1 19.444 22.5781 0
9 1 13.6706 27.2927 0
10 1 7.10466 7.83464 0
11 1 1.48451 7.12509 0
12 1 29.7142 13.0183 0
13 1 20.1557 25.0448 0
14 1 29.3946 29.4373 0
15 1 13.9667 28.3724 0
16 1 12.7433 16.7263 0
17 1 28.5763 26.1842 0
18 1 16.7369 7.87309 0
19 1 22.855 25.6937 0
20 1 9.72539 25.6408 0
21 1 14.7664 27.5887 0
22 1 19.0451 6.78264 0
23 1 5.86451 25.8142 0
24 1 23.5487 9.38734 0
25 1 1.63044 4.00978 0
26 1 25.0501 0.983555 0
27 1 1.4585 13.9049 0
28 1 17.8074 24.1072 0
29 1 11.1604 8.42825 0
30 1 23.0072 27.7355 0
31 1 12.3498 0.409046 0
32 1 4.86583 0.804352 0
33 1 11.925 27.182 0
34 1 6.02389 12.1019 0
35 1 18.5477 2.32225 0
36 1 1.32861 16.8314 0
37 1 17.7196 15.1382 0
38 1 22.8454 2.6692 0
39 1 25.3396 11.2721 0
40 1 15.6288 1.83165 0
41 1 1.03014 4.85118 0
42 1 25.0083 15.3016 0
43 1 7.12636 19.497 0
44 1 0.140587 19.1327 0
45 1 1.98173 26.4954 0
46 1 4.95154 7.63479 0
47 1 11.4189 17.0072 0
48 1 1.48956 1.24076 0
49 1 26.5154 5.72296 0
50 1 9.95329 20.1301 0
51 1 1.02707 12.2556 0
52 1 2.28677 6.0126 0
53 1 8.76919 16.9229 0
54 1 4.47821 18.8619 0
55 1 23.3617 10.9807 0
56 1 0.68892 1.4703 0
57 1 18.5354 11.8669 0
58 1 29.0327 7.98031 0
59 1 17.705 5.53439 0
60 1 27.1852 26.0536 0
61 1 3.59855 10.0135 0
62 1 24.1884 7.3691 0
63 1 17.2668 27.0559 0
64 1 16.2606 19.959 0
65 1 27.4238 17.6242 0
66 1 9.11003 19.0782 0
67 1 0.853178 20.72 0
68 1 7.88769 16.3289 0
69 1 14.6528 21.6476 0
70 1 13.8374 20.2296 0
71 1 27.0225 24.8873 0
72 1 21.152 24.9716 0
73 1 3.0972 29.2114 0
74 1 13.1381 6.78912 0
75 1 29.5683 24.3384 0
76 1 16.722 24.6215 0
77 1 6.57284 25.0558 0
78 1 6.42448 22.1182 0
79 1 17.4815 11.841 0
80 1 9.56959 2.70128 0
81 1 4.04946 2.42818 0
82 1 29.7084 2.09845 0
83 1 20.0263 11.0584 0
84 1 26.2489 26.8507 0
85 1 16.4434 5.43683 0
86 1 21.9611 22.8701 0
87 1 12.4671 22.0398 0
88 1 25.2911 22.1689 0
89 1 22.7203 20.2494 0
90 1 12.4998 28.1516 0
91 1 15.2259 5.04801 0
92 1 29.4369 15.3784 0
93 1 24.0605 10.1776 0
94 1 3.34419 16.763 0
95 1 22.3612 3.46345 0
96 1 2.41542 0.226002 0
97 1 23.4597 29.7387 0
98 1 13.2416 0.493871 0
99 1 11.5681 16.0604 0
100 1 21.1924 20.6455 0
101 1 11.4541 24.0056 0
102 1 5.94504 5.94352 0
103 1 24.8579 18.7225 0
104 1 16.5998 4.22396 0
105 1 16.9759 25.7132 0
106 1 10.2491 23.9815 0
107 1 11.1949 29.7276 0
108 1 4.66686 10.0198 0
109 1 17.6779 9.96893 0
110 1 18.545 27.0951 0
111 1 10.6033 1.21193 0
112 1 0.172356 10.8118 0
113 1 14.6661 8.79336 0
114 1 5.47531 8.60881 0
115 1 27.8373 0.879485 0
116 1 6.94591 2.83856 0
117 1 15.0345 7.27348 0
118 1 18.6989 18.9444 0
119 1 26.1454 11.9328 0
120 1 16.993 29.4744 0
121 1 24.2298 27.5293 0
122 1 24.4884 13.2555 0
123 1 25.257 9.21323 0
124 1 29.2038 3.42429 0
125 1 23.9245 14.464 0
126 1 5.66555 18.7139 0
127 1 13.3406 4.20887 0
128 1 24.6641 26.7124 0
129 1 20.5136 12.1559 0
130 1 8.53768 11.6673 0
131 1 19.3284 4.62383 0
132 1 2.86267 23.5655 0
133 1 2.28923 21.3189 0
134 1 7.77748 14.4647 0
135 1 3.75313 27.8862 0
136 1 13.1377 23.8246 0
137 1 24.6219 6.20214 0
138 1 25.4505 10.1364 0
139 1 0.15131 3.0688 0
140 1 5.20863 5.19938 0
141 1 5.30472 16.8802 0
142 1 9.34701 10.1248 0
143 1 21.9945 4.46983 0
144 1 29.0172 19.6935 0
145 1 16.427 16.9659 0
146 1 9.63863 10.8854 0
147 1 1.74564 2.33891 0
148 1 19.4824 24.1623 0
149 1 14.9581 29.6799 0
150 1 15.5766 8.29459 0
151 1 8.1504 12.7122 0
152 1 8.22178 10.5629 0
153 1 2.44886 27.8356 0
154 1 19.3783 3.44909 0
155 1 16.0104 3.22765 0
156 1 22.9985 17.044 0
157 1 24.3007 17.2415 0
158 1 15.7524 9.31835 0
159 1 12.2723 18.5624 0
160 1 27.1167 20.9533 0
161 1 16.5635 15.4811 0
162 1 9.06609 28.7286 0
163 1 23.8856 18.4693 0
164 1 17.7624 9.01997 0
165 1 7.70858 26.0121 0
166 1 3.53869 12.8813 0
167 1 21.0043 13.9845 0
168 1 29.7418 20.5008 0
169 1 5.51784 13.7049 0
170 1 27.8118 20.2287 0
171 1 1.76297 18.1947 0
172 1 7.07026 10.5352 0
173 1 8.94156 6.09418 0
174 1 11.1155 4.56465 0
175 1 24.5021 8.67209 0
176 1 20.3746 4.50036 0
177 1 19.6113 21.6243 0
178 1 6.15944 20.9722 0
179 1 23.0011 23.5561 0
180 1 24.9057 16.576 0
181 1 5.22848 22.8141 0
182 1 5.87796 2.67767 0
183 1 26.2933 8.12415 0
184 1 1.32271 21.7373 0
185 1 13.5538 12.6652 0
186 1 7.47493 28.1094 0
187 1 0.590417 16.1947 0
188 1 27.9461 27.6461 0
189 1 25.2592 25.5032 0
190 1 27.3932 23.6685 0
191 1 10.7454 3.45235 0
192 1 9.15636 7.114 0
193 1 23.0672 24.5472 0
194 1 19.2009 29.0705 0
ITEM: TIMESTEP
2040
ITEM: NUMBER OF ATOMS
194
ITEM: BOX BOUNDS pp pp pp
0.0000000000000000e+00 3.0000000000000000e+01
0.0000000000000000e+00 3.0000000000000000e+01
-5.0000000000000000e-01 5.0000000000000000e-01
ITEM: ATOMS id type x y z
1 1 25.6256 3.39577 0
2 1 18.1885 7.43717 0
3 1 13.4985 25.4725 0
4 1 12.5566 26.4724 0
5 1 0.574816 24.2768 0
6 1 12.5933 1.64582 0
7 1 6.24264 28.2851 0
8 1 19.6142 22.6478 0
9 1 13.6855 26.8785 0
10 1 6.55187 7.93496 0
11 1 1.34612 6.98317 0
12 1 30.0625 13.3892 0
13 1 20.1322 24.7367 0
14 1 29.4909 29.3588 0
15 1 13.9972 28.1118 0
16 1 13.0245 16.7081 0
17 1 28.9012 26.2839 0
18 1 16.9699 7.47474 0
19 1 22.9614 25.511 0
20 1 9.5752 25.459 0
21 1 14.8285 27.7853 0
22 1 18.8356 6.97305 0
23 1 5.67688 25.658 0
24 1 23.304 9.14171 0
25 1 1.64454 3.99612 0
26 1 25.1678 1.14345 0
27 1 2.01474 13.4951 0
28 1 17.8851 24.3759 0
29 1 11.1965 8.38318 0
30 1 23.1242 27.7719 0
31 1 12.3724 0.0293051 0
32 1 4.46772 1.02339 0
33 1 11.7359 26.6692 0
34 1 6.17691 11.8315 0
35 1 18.4244 2.45149 0
36 1 1.84475 17.0475 0
37 1 17.7319 14.8199 0
38 1 23.3419 2.08494 0
39 1 25.0377 11.0833 0
40 1 15.4119 2.05307 0
41 1 1.27139 4.92678 0
42 1 25.0934 15.1086 0
43 1 7.38716 19.7781 0
44 1 0.0978887 18.6771 0
45 1 2.42968 26.1474 0
46 1 5.14789 7.46313 0
47 1 11.4031 17.4523 0
48 1 1.46544 1.24359 0
49 1 26.3109 5.97016 0
50 1 10.3566 19.9311 0
51 1 1.25896 12.0905 0
52 1 2.16813 6.33241 0
53 1 8.89655 17.1299 0
54 1 4.82582 18.7494 0
55 1 23.5623 10.6561 0
56 1 0.194265 1.46731 0
57 1 18.4106 11.8068 0
58 1 28.7902 8.13108 0
59 1 17.4848 5.33085 0
60 1 27.0382 25.9346 0
61 1 3.30568 10.1287 0
62 1 23.8336 7.24002 0
63 1 17.1204 26.6948 0
64 1 15.8723 19.1981 0
65 1 27.6024 17.6003 0
66 1 9.21683 18.9834 0
67 1 0.654382 20.3363 0
68 1 8.12136 16.456 0
69 1 14.2376 21.3256 0
70 1 13.7268 20.1819 0
71 1 27.0003 24.8513 0
72 1 21.4467 24.8599 0
73 1 3.21719 29.3244 0
74 1 12.7961 7.08208 0
75 1 29.6677 24.1042 0
76 1 16.5773 24.7678 0
77 1 6.4302 25.0175 0
78 1 6.22802 22.0784 0
79 1 17.411 12.1844 0
80 1 9.67057 2.49741 0
81 1 3.68812 2.25902 0
82 1 29.6966 2.17382 0
83 1 19.9736 11.4595 0
84 1 26.1407 26.7912 0
85 1 16.6635 5.54514 0
86 1 22.1154 22.7352 0
87 1 12.1054 22.0367 0
88 1 25.1738 22.3006 0
89 1 22.9445 20.2813 0
90 1 12.5606 28.6692 0
91 1 15.5055 4.95139 0
92 1 29.8735 15.3594 0
93 1 24.0021 9.86339 0
94 1 3.25973 16.443 0
95 1 22.8549 3.21779 0
96 1 2.34081 0.538004 0
97 1 23.7695 29.563 0
98 1 13.6716 0.396345 0
99 1 11.628 16.5056 0
100 1 20.8971 20.908 0
101 1 11.2676 24.1325 0
102 1 6.20348 6.41508 0
103 1 24.7686 18.9075 0
104 1 16.4963 4.32051 0
105 1 17.2233 25.7055 0
106 1 10.3139 24.3225 0
107 1 11.4013 29.9877 0
108 1 5.20241 10.3303 0
109 1 17.6687 9.79806 0
110 1 18.0649 26.8441 0
111 1 10.6384 1.76725 0
112 1 0.107745 11.3582 0
113 1 14.3757 8.62649 0
114 1 5.66505 8.89246 0
115 1 28.1731 0.981818 0
116 1 7.55019 2.98199 0
117 1 15.066 7.43534 0
118 1 19.2 19.0567 0
119 1 26.0387 12.4272 0
120 1 17.2001 29.0726 0
121 1 24.1219 28.0226 0
122 1 24.7125 13.2141 0
123 1 25.3185 9.24398 0
124 1 29.2692 3.12348 0
125 1 23.5189 14.9159 0
126 1 5.7668 18.5566 0
127 1 12.7364 4.17722 0
128 1 24.8956 26.6412 0
129 1 20.8745 12.1338 0
130 1 8.97247 11.8219 0
131 1 19.5374 4.40456 0
132 1 3.05276 23.9492 0
133 1 2.25134 21.1446 0
134 1 8.01923 14.7494 0
135 1 3.83178 27.9104 0
136 1 12.8147 24.2079 0
137 1 24.4169 6.24251 0
138 1 25.6777 10.3996 0
139 1 0.235029 3.32333 0
140 1 5.4337 4.69892 0
141 1 5.36801 16.9937 0
142 1 9.15025 9.79503 0
143 1 22.0836 4.91696 0
144 1 29.2678 19.5507 0
145 1 15.9505 17.135 0
146 1 9.92525 10.9734 0
147 1 1.64235 2.09105 0
148 1 19.4182 23.8968 0
149 1 14.6445 29.9362 0
150 1 15.2334 8.27186 0
151 1 7.66759 12.5999 0
152 1 8.32424 11.2043 0
153 1 2.52495 27.5104 0
154 1 19.2898 3.39748 0
155 1 16.0316 3.12104 0
156 1 22.9538 17.1716 0
157 1 24.1842 17.3994 0
158 1 15.7828 9.05665 0
159 1 12.3416 18.754 0
160 1 26.9238 21.1429 0
161 1 16.6596 15.741 0
162 1 8.70124 28.3795 0
163 1 23.8234 18.509 0
164 1 17.7522 8.56649 0
165 1 7.2491 26.1899 0
166 1 3.46167 12.8946 0
167 1 20.9232 13.8235 0
168 1 29.7537 20.3932 0
169 1 5.23393 13.7598 0
170 1 27.9293 19.9823 0
171 1 1.88138 18.1311 0
172 1 6.49125 10.5685 0
173 1 9.13631 6.22566 0
174 1 11.0038 4.39014 0
175 1 24.4399 8.65757 0
176 1 20.751 4.64062 0
177 1 19.5057 21.6434 0
178 1 6.50721 20.6982 0
179 1 23.031 23.622 0
180 1 24.8783 16.6021 0
181 1 5.16547 23.1569 0
182 1 5.45217 2.40707 0
183 1 26.5686 8.16142 0
184 1 1.16058 21.9946 0
185 1 13.7357 12.7247 0
186 1 7.60508 28.126 0
187 1 0.164395 16.4128 0
188 1 27.6429 27.749 0
189 1 25.4363 25.6554 0
190 1 27.1647 23.6964 0
191 1 10.6929 3.33793 0
192 1 8.68716 7.13826 0
193 1 23.0441 24.66 0
194 1 19.3938 28.7714 0
ITEM: TIMESTEP
2055
ITEM: NUMBER OF ATOMS
194
ITEM: BOX BOUNDS pp pp pp
0.0000000000000000e+00 3.0000000000000000e+01
0.0000000000000000e+00 3.0000000000000000e+01
-5.0000000000000000e-01 5.0000000000000000e-01
ITEM: ATOMS id type x y z
1 1 25.4142 3.28674 0
2 1 18.128 7.50705 0
3 1 13.3878 25.4049 0
4 1 12.7581 26.8291 0
5 1 0.757823 24.0145 0
6 1 12.1805 1.66344 0
7 1 5.94505 28.1257 0
8 1 19.7879 22.8874 0
9 1 13.7071 26.4657 0
10 1 5.99494 8.03546 0
11 1 1.1666 6.86228 0
12 1 0.411961 13.7597 0
13 1 20.1133 24.4308 0
14 1 29.5871 29.2807 0
15 1 13.8406 27.9301 0
16 1 13.301 16.6899 0
17 1 29.2248 26.3837 0
18 1 17.2051 7.07884 0
19 1 23.0366 25.6429 0
20 1 9.42709 25.2743 0
21 1 15.0717 27.898 0
22 1 19.1247 6.8022 0
23 1 5.44854 25.5383 0
24 1 23.0196 8.84065 0
25 1 1.7876 3.72984 0
26 1 25.2849 1.30347 0
27 1 2.56611 13.0844 0
28 1 17.9593 24.6482 0
29 1 11.2328 8.33789 0
30 1 23.22 27.8007 0
31 1 12.4136 29.8394 0
32 1 4.06837 1.24589 0
33 1 11.2063 26.2829 0
34 1 6.33146 11.5629 0
35 1 18.3046 2.58457 0
36 1 2.36781 17.2314 0
37 1 17.7415 14.5037 0
38 1 23.8404 1.4986 0
39 1 24.6686 10.9818 0
40 1 15.1973 2.27828 0
41 1 1.38212 5.25468 0
42 1 25.176 14.9174 0
43 1 7.65534 20.0552 0
44 1 0.0523838 18.2267 0
45 1 2.87808 25.8033 0
46 1 5.34905 7.29242 0
47 1 11.3638 18.0209 0
48 1 1.35577 0.921512 0
49 1 26.106 6.21763 0
50 1 10.7579 19.7301 0
51 1 1.48784 11.9258 0
52 1 2.08983 6.62945 0
53 1 9.04492 17.3558 0
54 1 5.05611 18.6639 0
55 1 23.6783 10.483 0
56 1 -0.14197 1.24232 0
57 1 18.2988 11.7435 0
58 1 28.5474 8.28185 0
59 1 17.5712 5.0393 0
60 1 26.8861 25.8282 0
61 1 3.01391 10.244 0
62 1 23.4809 7.11117 0
63 1 16.7882 26.3837 0
64 1 15.4839 18.4365 0
65 1 27.7811 17.5765 0
66 1 9.32527 18.8899 0
67 1 0.633859 19.9375 0
68 1 8.3341 16.5637 0
69 1 13.8232 21.0084 0
70 1 13.615 20.1291 0
71 1 26.9779 24.8047 0
72 1 21.7418 24.7475 0
73 1 3.33638 29.4374 0
74 1 12.4542 7.3755 0
75 1 29.6009 23.837 0
76 1 16.438 24.9145 0
77 1 6.3313 24.9455 0
78 1 6.03025 22.0367 0
79 1 17.3293 12.5304 0
80 1 9.75833 2.29987 0
81 1 3.32878 2.08706 0
82 1 29.6505 2.23675 0
83 1 19.9207 11.8619 0
84 1 26.037 26.7261 0
85 1 16.5697 5.73262 0
86 1 22.2735 22.6042 0
87 1 11.7438 22.0338 0
88 1 25.0567 22.4322 0
89 1 23.1686 20.3129 0
90 1 12.6718 28.9913 0
91 1 15.7488 4.88524 0
92 1 0.310206 15.3399 0
93 1 24.0799 9.45596 0
94 1 3.17339 16.1244 0
95 1 23.3465 2.9751 0
96 1 2.29484 0.839453 0
97 1 24.0796 29.3887 0
98 1 13.704 0.488384 0
99 1 11.7172 16.8292 0
100 1 20.6001 21.1716 0
101 1 11.1701 24.2356 0
102 1 6.45939 6.88987 0
103 1 24.7084 19.1026 0
104 1 16.4353 4.39159 0
105 1 17.4974 25.6126 0
106 1 10.29 24.6903 0
107 1 11.5399 0.254802 0
108 1 5.25157 10.5759 0
109 1 17.6591 9.62724 0
110 1 17.7439 26.6242 0
111 1 10.6912 2.319 0
112 1 0.0463877 11.9069 0
113 1 13.958 8.50995 0
114 1 5.85583 9.17376 0
115 1 28.5101 1.08448 0
116 1 8.15407 3.1252 0
117 1 15.0294 7.27871 0
118 1 19.7011 19.1691 0
119 1 25.9288 12.9209 0
120 1 17.4074 28.6705 0
121 1 24.0359 28.5212 0
122 1 24.9384 13.1723 0
123 1 25.4066 9.29568 0
124 1 29.0846 3.06461 0
125 1 23.1157 15.3681 0
126 1 5.98551 18.3703 0
127 1 12.1307 4.14562 0
128 1 25.1181 26.5815 0
129 1 21.2338 12.1122 0
130 1 9.57565 12.1761 0
131 1 19.7562 4.20717 0
132 1 3.24291 24.3331 0
133 1 2.20987 20.9719 0
134 1 8.26103 15.0351 0
135 1 3.90558 27.9354 0
136 1 12.4911 24.594 0
137 1 24.2112 6.28534 0
138 1 25.9679 10.5737 0
139 1 0.435784 3.57449 0
140 1 5.65936 4.19933 0
141 1 5.43133 17.1097 0
142 1 8.946 9.45278 0
143 1 22.1691 5.36206 0
144 1 29.4856 19.3386 0
145 1 15.4748 17.303 0
146 1 10.2126 11.0794 0
147 1 1.6087 2.17386 0
148 1 19.3448 23.6413 0
149 1 14.7287 0.00326706 0
150 1 15.0127 8.42062 0
151 1 7.18639 12.4833 0
152 1 8.26096 11.6438 0
153 1 2.60493 27.1829 0
154 1 19.1918 3.32162 0
155 1 16.0522 3.01554 0
156 1 22.9157 17.3015 0
157 1 24.0177 17.6077 0
158 1 15.8884 8.89068 0
159 1 12.4099 18.9442 0
160 1 26.7321 21.331 0
161 1 16.7578 16.0006 0
162 1 8.48838 28.0369 0
163 1 23.7298 18.5375 0
164 1 17.6648 8.24592 0
165 1 6.7866 26.3651 0
166 1 3.38851 12.9073 0
167 1 20.8421 13.6613 0
168 1 29.6209 20.3671 0
169 1 4.94973 13.8141 0
170 1 28.0496 19.7365 0
171 1 1.99314 18.0983 0
172 1 6.39896 10.6632 0
173 1 9.34287 6.30497 0
174 1 10.8948 4.22039 0
175 1 24.345 8.61887 0
176 1 21.1276 4.78049 0
177 1 19.4047 21.4804 0
178 1 6.84707 20.4312 0
179 1 23.0563 23.6224 0
180 1 24.8964 16.5744 0
181 1 5.10422 23.4981 0
182 1 5.02521 2.13553 0
183 1 26.8428 8.19964 0
184 1 1.00042 22.2484 0
185 1 13.9175 12.7842 0
186 1 7.58049 28.1357 0
187 1 29.7395 16.6316 0
188 1 27.3392 27.8504 0
189 1 25.6244 25.799 0
190 1 26.9355 23.7273 0
191 1 10.6354 3.21533 0
192 1 8.20591 7.21472 0
193 1 23.0499 24.5204 0
194 1 19.5864 28.4722 0
ITEM: TIMESTEP
2070
ITEM: NUMBER OF ATOMS
194
ITEM: BOX BOUNDS pp pp pp
0.0000000000000000e+00 3.0000000000000000e+01
0.0000000000000000e+00 3.0000000000000000e+01
-5.0000000000000000e-01 5.0000000000000000e-01
ITEM: ATOMS id type x y z
1 1 25.2023 3.17708 0
2 1 18.313 7.15659 0
3 1 13.2606 25.312 0
4 1 12.9436 27.1891 0
5 1 0.948091 23.7523 0
6 1 11.7653 1.67862 0
7 1 5.64911 27.9658 0
8 1 20.094 22.9208 0
9 1 13.764 26.0748 0
10 1 5.47108 8.19128 0
11 1 0.894225 6.77117 0
12 1 0.76156 14.1314 0
13 1 20.0981 24.1257 0
14 1 29.6833 29.2034 0
15 1 13.671 27.7503 0
16 1 13.5758 16.672 0
17 1 29.5483 26.4835 0
18 1 17.4122 6.67119 0
19 1 23.1077 25.8152 0
20 1 9.2403 25.1046 0
21 1 15.3251 28.0071 0
22 1 19.4646 6.59328 0
23 1 5.20729 25.4296 0
24 1 22.7418 8.53948 0
25 1 1.92588 3.46278 0
26 1 25.3988 1.46387 0
27 1 2.55872 12.7605 0
28 1 18.1101 24.7553 0
29 1 11.271 8.29116 0
30 1 23.3017 27.819 0
31 1 12.4352 0.258509 0
32 1 3.69448 1.44932 0
33 1 10.6711 25.8962 0
34 1 6.43555 11.5379 0
35 1 18.1851 2.71863 0
36 1 2.92673 17.3204 0
37 1 17.7503 14.1877 0
38 1 24.3412 0.913953 0
39 1 24.3523 10.9208 0
40 1 14.9837 2.50452 0
41 1 1.49379 5.5839 0
42 1 25.2581 14.7261 0
43 1 8.12014 20.2553 0
44 1 0.00447279 17.78 0
45 1 3.32323 25.4797 0
46 1 5.52267 7.06451 0
47 1 11.3273 18.5915 0
48 1 1.14683 0.609171 0
49 1 25.9006 6.46537 0
50 1 11.1593 19.527 0
51 1 1.7153 11.7626 0
52 1 2.10374 6.893 0
53 1 9.20327 17.5938 0
54 1 5.1825 18.6058 0
55 1 23.7297 10.2921 0
56 1 29.5829 0.965155 0
57 1 18.1855 11.6827 0
58 1 28.3031 8.4325 0
59 1 17.6902 4.73116 0
60 1 26.7339 25.7532 0
61 1 2.7222 10.3594 0
62 1 23.1266 6.98581 0
63 1 16.2924 26.1009 0
64 1 15.1281 18.144 0
65 1 27.9603 17.5528 0
66 1 9.43441 18.795 0
67 1 0.648563 19.5287 0
68 1 8.53726 16.6591 0
69 1 13.4495 20.914 0
70 1 13.4612 19.8524 0
71 1 26.9582 24.7413 0
72 1 22.0411 24.6345 0
73 1 3.45559 29.55 0
74 1 12.1109 7.67074 0
75 1 29.5271 23.5683 0
76 1 16.3054 25.0661 0
77 1 6.24714 24.8651 0
78 1 5.83225 21.9951 0
79 1 17.2506 12.8744 0
80 1 9.75218 2.11064 0
81 1 2.94296 1.93415 0
82 1 29.7553 2.06164 0
83 1 19.8703 12.2655 0
84 1 26.1281 26.7377 0
85 1 16.4364 5.92991 0
86 1 22.4346 22.4776 0
87 1 11.3824 22.0309 0
88 1 24.9399 22.5637 0
89 1 23.3933 20.3435 0
90 1 12.9604 28.6439 0
91 1 15.708 5.02744 0
92 1 0.746013 15.321 0
93 1 24.0764 9.34182 0
94 1 3.08484 15.8089 0
95 1 23.8395 2.73033 0
96 1 2.34542 1.1263 0
97 1 24.4615 29.6877 0
98 1 13.3863 0.742705 0
99 1 11.8079 17.1543 0
100 1 20.3017 21.4368 0
101 1 11.1482 24.3107 0
102 1 6.71106 7.37081 0
103 1 24.6487 19.2971 0
104 1 16.6659 4.26004 0
105 1 17.7175 25.5903 0
106 1 10.2341 25.0735 0
107 1 11.5272 0.5857 0
108 1 4.65797 10.74 0
109 1 17.649 9.45192 0
110 1 17.5583 26.4653 0
111 1 10.9082 2.3916 0
112 1 29.9882 12.4565 0
113 1 13.5095 8.39915 0
114 1 6.04675 9.45473 0
115 1 28.8043 1.19618 0
116 1 8.75885 3.26793 0
117 1 14.988 7.08823 0
118 1 20.2023 19.2818 0
119 1 25.9623 13.4123 0
120 1 17.6149 28.2679 0
121 1 23.8927 28.5569 0
122 1 25.0208 13.1337 0
123 1 25.4886 9.34956 0
124 1 28.7377 3.28876 0
125 1 22.713 15.821 0
126 1 6.30701 18.1514 0
127 1 11.5802 4.11119 0
128 1 25.1036 26.5956 0
129 1 21.5889 12.0913 0
130 1 10.1826 12.5277 0
131 1 19.9857 4.02692 0
132 1 3.43617 24.7001 0
133 1 2.16708 20.7997 0
134 1 8.50296 15.3232 0
135 1 3.97683 27.9607 0
136 1 12.1665 24.9824 0
137 1 24.0077 6.3264 0
138 1 26.2567 10.7427 0
139 1 0.638162 3.82287 0
140 1 5.88497 3.69956 0
141 1 5.49588 17.231 0
142 1 8.74193 9.11107 0
143 1 22.2512 5.80537 0
144 1 29.6955 19.088 0
145 1 14.9667 17.0012 0
146 1 10.4965 11.1896 0
147 1 1.57811 2.26542 0
148 1 19.1354 23.5885 0
149 1 15.1587 29.9061 0
150 1 14.7656 8.54976 0
151 1 6.71065 12.3717 0
152 1 8.19307 12.0832 0
153 1 2.68787 26.8532 0
154 1 19.085 3.22898 0
155 1 16.0728 2.9128 0
156 1 22.8799 17.433 0
157 1 23.8813 17.7244 0
158 1 16.0573 8.7715 0
159 1 12.4757 19.1333 0
160 1 26.5404 21.519 0
161 1 16.856 16.2601 0
162 1 8.61672 27.6911 0
163 1 23.6057 18.6536 0
164 1 17.3066 8.39753 0
165 1 6.32165 26.5379 0
166 1 3.87325 12.8323 0
167 1 20.7612 13.4969 0
168 1 29.4599 20.3845 0
169 1 4.66457 13.8678 0
170 1 28.1733 19.4906 0
171 1 2.07063 18.1573 0
172 1 6.99827 10.585 0
173 1 9.54754 6.38582 0
174 1 10.7832 4.20954 0
175 1 24.3447 8.26527 0
176 1 21.5052 4.92136 0
177 1 19.3056 21.3191 0
178 1 6.99004 20.2416 0
179 1 23.079 23.4231 0
180 1 24.9118 16.5483 0
181 1 5.04377 23.8395 0
182 1 4.5955 1.86231 0
183 1 27.1177 8.23826 0
184 1 0.840639 22.5026 0
185 1 14.0993 12.8437 0
186 1 7.21262 28.1482 0
187 1 29.3159 16.8499 0
188 1 27.0346 27.9505 0
189 1 25.8539 25.7884 0
190 1 26.705 23.7483 0
191 1 10.4561 3.40659 0
192 1 7.72509 7.28965 0
193 1 23.0536 24.536 0
194 1 19.7787 28.1731 0
ITEM: TIMESTEP
2085
ITEM: NUMBER OF ATOMS
194
ITEM: BOX BOUNDS pp pp pp
0.0000000000000000e+00 3.0000000000000000e+01
0.0000000000000000e+00 3.0000000000000000e+01
-5.0000000000000000e-01 5.0000000000000000e-01
ITEM: ATOMS id type x y z
1 1 24.9928 3.06859 0
2 1 18.5311 6.81788 0
3 1 13.0484 25.0938 0
4 1 12.7896 27.3243 0
5 1 1.14086 23.5016 0
6 1 11.471 1.66476 0
7 1 5.35448 27.8041 0
8 1 20.4298 22.9144 0
9 1 13.9016 25.8122 0
10 1 4.96156 8.37671 0
11 1 0.621378 6.67744 0
12 1 1.1095 14.4755 0
13 1 20.0836 23.8237 0
14 1 29.7796 29.1276 0
15 1 13.877 27.7559 0
16 1 13.775 16.6766 0
17 1 29.8717 26.5834 0
18 1 17.5873 6.24658 0
19 1 23.1776 25.9815 0
20 1 8.98667 24.9466 0
21 1 15.5767 28.1163 0
22 1 19.7996 6.38665 0
23 1 4.96872 25.3185 0
24 1 22.4685 8.23773 0
25 1 2.06055 3.19453 0
26 1 25.5076 1.62316 0
27 1 2.43063 12.4494 0
28 1 18.4054 24.5547 0
29 1 11.1345 8.36539 0
30 1 23.2993 27.7239 0
31 1 12.4521 0.544671 0
32 1 3.35687 1.50046 0
33 1 10.4251 26.1099 0
34 1 6.44892 11.3593 0
35 1 18.0413 2.84136 0
36 1 3.48843 17.4019 0
37 1 17.7615 13.8741 0
38 1 24.8007 0.78304 0
39 1 24.2192 11.0249 0
40 1 14.7733 2.73165 0
41 1 1.60457 5.91912 0
42 1 25.3409 14.5319 0
43 1 8.63668 20.4419 0
44 1 29.9574 17.3381 0
45 1 3.67898 25.8211 0
46 1 5.68977 6.80969 0
47 1 11.3308 18.6112 0
48 1 0.93342 0.299792 0
49 1 25.6946 6.71339 0
50 1 11.5287 19.873 0
51 1 1.94437 11.6001 0
52 1 2.11888 7.15243 0
53 1 9.35967 17.8243 0
54 1 5.31032 18.5438 0
55 1 23.5587 10.0173 0
56 1 29.7656 0.556274 0
57 1 18.0714 11.624 0
58 1 28.1109 8.60101 0
59 1 17.8149 4.42628 0
60 1 26.8747 25.6999 0
61 1 2.43019 10.4764 0
62 1 22.7805 6.8792 0
63 1 15.7731 25.9434 0
64 1 14.8067 18.2998 0
65 1 28.1395 17.5303 0
66 1 9.54563 18.7066 0
67 1 0.709194 19.1413 0
68 1 8.74111 16.7515 0
69 1 13.0856 20.9086 0
70 1 13.3324 19.4994 0
71 1 26.9495 24.6793 0
72 1 22.2377 24.5241 0
73 1 3.57496 29.6625 0
74 1 11.9445 7.84595 0
75 1 29.458 23.2992 0
76 1 16.2047 25.0936 0
77 1 6.1586 24.7862 0
78 1 5.63424 21.9536 0
79 1 17.1711 13.2142 0
80 1 9.74168 1.92523 0
81 1 2.54045 2.17182 0
82 1 29.8563 1.89233 0
83 1 19.8221 12.6708 0
84 1 26.3344 26.8281 0
85 1 16.3058 6.12563 0
86 1 22.5945 22.3493 0
87 1 11.021 22.0282 0
88 1 24.8235 22.6953 0
89 1 23.6194 20.3719 0
90 1 13.2158 28.3326 0
91 1 15.6506 5.18647 0
92 1 1.18319 15.3292 0
93 1 24.0857 9.24562 0
94 1 2.9957 15.4957 0
95 1 24.3308 2.48212 0
96 1 2.24644 1.13765 0
97 1 24.9159 29.6643 0
98 1 13.2037 1.07885 0
99 1 11.8984 17.4823 0
100 1 20.0455 21.7142 0
101 1 11.1293 24.3909 0
102 1 6.66519 7.94908 0
103 1 24.5828 19.4892 0
104 1 16.9077 4.11034 0
105 1 17.8506 25.613 0
106 1 9.95869 24.8418 0
107 1 11.3709 0.851316 0
108 1 4.06538 10.9039 0
109 1 17.6424 9.28274 0
110 1 17.3086 26.5672 0
111 1 11.054 2.43418 0
112 1 29.9311 13.0064 0
113 1 13.0633 8.28763 0
114 1 6.2378 9.73485 0
115 1 28.647 1.43425 0
116 1 9.34552 3.41063 0
117 1 14.9469 6.90072 0
118 1 20.7034 19.3948 0
119 1 26.1652 13.9206 0
120 1 17.8223 27.8642 0
121 1 23.807 28.5774 0
122 1 24.9328 13.0818 0
123 1 25.5659 9.40403 0
124 1 28.3927 3.51117 0
125 1 22.3109 16.2758 0
126 1 6.62462 17.9294 0
127 1 11.5692 4.01497 0
128 1 24.9805 26.6215 0
129 1 21.9419 12.0717 0
130 1 10.79 12.8753 0
131 1 20.2135 3.84528 0
132 1 3.71983 24.4045 0
133 1 2.12377 20.6274 0
134 1 8.74503 15.6159 0
135 1 4.04824 27.9864 0
136 1 11.8395 25.3697 0
137 1 23.8062 6.36604 0
138 1 26.5438 10.91 0
139 1 0.844503 4.06925 0
140 1 6.11047 3.19963 0
141 1 5.56295 17.3597 0
142 1 8.53757 8.76921 0
143 1 22.3215 6.2316 0
144 1 29.8558 18.8164 0
145 1 14.4993 16.2289 0
146 1 10.7793 11.3036 0
147 1 1.55101 2.35347 0
148 1 18.8938 23.571 0
149 1 15.5879 29.8087 0
150 1 14.5172 8.6755 0
151 1 6.30128 12.5058 0
152 1 8.12242 12.5229 0
153 1 2.77334 26.5214 0
154 1 19.0044 3.15052 0
155 1 16.0917 2.81207 0
156 1 22.8219 17.5594 0
157 1 23.7984 17.7531 0
158 1 16.1843 8.66003 0
159 1 12.4983 19.3081 0
160 1 26.3482 21.7076 0
161 1 16.954 16.5195 0
162 1 8.74482 27.3456 0
163 1 23.456 18.8639 0
164 1 16.9839 8.53422 0
165 1 5.85464 26.7106 0
166 1 4.47912 12.7458 0
167 1 20.6794 13.3292 0
168 1 29.3005 20.3958 0
169 1 4.37724 13.9184 0
170 1 28.3005 19.2448 0
171 1 2.14523 18.2218 0
172 1 7.62253 10.4117 0
173 1 9.75181 6.46686 0
174 1 10.3005 4.7107 0
175 1 24.3728 7.81077 0
176 1 21.8843 5.06461 0
177 1 19.1647 21.1492 0
178 1 7.08125 20.0652 0
179 1 23.1023 23.2007 0
180 1 24.9255 16.5233 0
181 1 4.98416 24.1844 0
182 1 4.29227 1.62947 0
183 1 27.34 8.25909 0
184 1 0.673927 22.7454 0
185 1 14.2812 12.9032 0
186 1 6.84269 28.1594 0
187 1 28.8914 17.0676 0
188 1 26.7283 28.0482 0
189 1 25.7813 25.6941 0
190 1 26.4669 23.7418 0
191 1 10.0956 3.31843 0
192 1 7.53582 7.26828 0
193 1 23.1617 24.5797 0
194 1 19.9708 27.8739 0
ITEM: TIMESTEP
2100
ITEM: NUMBER OF ATOMS
194
ITEM: BOX BOUNDS pp pp pp
0.0000000000000000e+00 3.0000000000000000e+01
0.0000000000000000e+00 3.0000000000000000e+01
-5.0000000000000000e-01 5.0000000000000000e-01
ITEM: ATOMS id type x y z
1 1 24.9679 3.1636 0
2 1 18.7577 6.48029 0
3 1 12.8161 24.8581 0
4 1 12.4797 27.3613 0
5 1 1.43728 23.4085 0
6 1 11.495 1.84187 0
7 1 5.05182 27.6599 0
8 1 20.7913 22.8429 0
9 1 14.0549 25.5694 0
10 1 4.45406 8.56103 0
11 1 0.354805 6.58109 0
12 1 1.42945 14.5116 0
13 1 20.0356 23.5819 0
14 1 29.8772 29.0565 0
15 1 14.4189 27.6891 0
16 1 13.6031 16.8388 0
17 1 0.195197 26.6832 0
18 1 17.7535 5.81796 0
19 1 23.2476 26.1447 0
20 1 8.67249 24.7972 0
21 1 15.8275 28.2263 0
22 1 20.1301 6.18146 0
23 1 4.71719 25.2899 0
24 1 22.1938 7.93816 0
25 1 2.09085 3.33465 0
26 1 25.6661 1.85345 0
27 1 2.35708 12.258 0
28 1 18.6896 24.4103 0
29 1 10.755 8.60425 0
30 1 23.2421 27.5446 0
31 1 12.2194 0.669074 0
32 1 2.87961 1.48966 0
33 1 10.2854 26.5473 0
34 1 6.45573 11.118 0
35 1 17.8607 2.95514 0
36 1 4.04882 17.4842 0
37 1 17.9806 13.7484 0
38 1 25.1507 1.14329 0
39 1 24.0929 11.1354 0
40 1 14.5671 2.95902 0
41 1 1.71284 6.26136 0
42 1 25.3755 14.3545 0
43 1 9.15135 20.6278 0
44 1 29.9148 16.9019 0
45 1 4.03106 26.2269 0
46 1 5.85882 6.55824 0
47 1 11.3388 18.3956 0
48 1 0.757527 -0.0165269 0
49 1 25.4869 6.96235 0
50 1 11.8885 20.4677 0
51 1 2.11373 11.3641 0
52 1 2.1301 7.40704 0
53 1 9.46478 17.8236 0
54 1 5.44142 18.4782 0
55 1 23.3012 9.86944 0
56 1 29.9311 0.148384 0
57 1 17.9571 11.5662 0
58 1 28.2546 8.90951 0
59 1 18.031 4.14889 0
60 1 27.1068 25.6777 0
61 1 2.14573 10.5474 0
62 1 22.8003 7.2814 0
63 1 15.1951 25.9666 0
64 1 14.4842 18.4551 0
65 1 27.9178 17.7748 0
66 1 9.70655 18.8453 0
67 1 0.925581 18.8137 0
68 1 8.94725 16.8554 0
69 1 12.721 20.8985 0
70 1 13.4861 19.2201 0
71 1 26.9484 24.6055 0
72 1 22.2482 24.4087 0
73 1 3.69436 29.7752 0
74 1 11.9479 7.82137 0
75 1 29.3932 23.0287 0
76 1 16.1653 24.9418 0
77 1 6.0615 24.7079 0
78 1 5.43625 21.9121 0
79 1 16.8842 13.3651 0
80 1 9.73613 1.74547 0
81 1 2.44792 2.3043 0
82 1 29.9537 1.71718 0
83 1 19.7237 13.0554 0
84 1 26.5399 26.9169 0
85 1 16.1768 6.32068 0
86 1 22.7223 22.1651 0
87 1 10.6599 22.0252 0
88 1 24.7071 22.8269 0
89 1 23.8469 20.3965 0
90 1 13.2929 28.1906 0
91 1 15.5959 5.34696 0
92 1 1.64928 15.6452 0
93 1 24.1782 9.01245 0
94 1 2.90552 15.1827 0
95 1 24.6406 2.02541 0
96 1 2.03023 0.920336 0
97 1 25.4256 29.0821 0
98 1 13.2725 1.57806 0
99 1 11.9969 17.8037 0
100 1 19.8171 22.0076 0
101 1 11.1085 24.4778 0
102 1 6.39524 8.61523 0
103 1 24.5105 19.6798 0
104 1 17.0573 3.92955 0
105 1 18.0091 25.5578 0
106 1 9.64432 24.3747 0
107 1 11.1426 0.53135 0
108 1 3.4712 11.0682 0
109 1 17.7055 9.19367 0
110 1 17.0317 26.7491 0
111 1 11.1495 2.71126 0
112 1 29.8745 13.5568 0
113 1 12.6929 8.2117 0
114 1 6.4305 10.0164 0
115 1 28.4747 1.68191 0
116 1 9.07215 3.67185 0
117 1 14.9078 6.71267 0
118 1 21.2045 19.5081 0
119 1 26.4139 14.4087 0
120 1 18.0282 27.4572 0
121 1 23.778 28.6821 0
122 1 24.847 13.0333 0
123 1 25.6405 9.45869 0
124 1 28.0479 3.73307 0
125 1 21.9105 16.7344 0
126 1 6.93494 17.7065 0
127 1 11.5779 3.91109 0
128 1 24.8636 26.6442 0
129 1 22.2941 12.0529 0
130 1 11.3974 13.2208 0
131 1 20.438 3.66184 0
132 1 4.01331 24.0449 0
133 1 2.08019 20.4548 0
134 1 8.98741 15.9019 0
135 1 4.12207 28.012 0
136 1 11.512 25.753 0
137 1 23.6024 6.40857 0
138 1 26.8302 11.0766 0
139 1 1.05346 4.31374 0
140 1 6.33589 2.69963 0
141 1 5.63361 17.4929 0
142 1 8.33209 8.42703 0
143 1 22.0313 6.1474 0
144 1 29.8586 18.4831 0
145 1 14.4031 15.3002 0
146 1 11.0621 11.4197 0
147 1 1.39563 2.38926 0
148 1 18.6695 23.4968 0
149 1 16.017 29.7101 0
150 1 14.2683 8.79977 0
151 1 5.90359 12.6993 0
152 1 8.05055 12.9621 0
153 1 2.85947 26.1886 0
154 1 18.9612 3.08718 0
155 1 16.108 2.71316 0
156 1 22.7152 17.6752 0
157 1 23.7659 17.7885 0
158 1 15.8155 8.62842 0
159 1 12.2359 19.4067 0
160 1 26.1554 21.8969 0
161 1 17.052 16.7789 0
162 1 8.87289 27 0
163 1 23.3091 19.0788 0
164 1 17.0856 8.51038 0
165 1 5.3944 26.8657 0
166 1 5.08166 12.6623 0
167 1 20.6482 13.1813 0
168 1 29.1406 20.4034 0
169 1 4.09002 13.9654 0
170 1 28.4309 18.9988 0
171 1 2.2203 18.2858 0
172 1 8.24322 10.239 0
173 1 9.95621 6.54708 0
174 1 9.79613 5.21988 0
175 1 24.3995 7.35656 0
176 1 22.265 5.20739 0
177 1 18.9978 20.9685 0
178 1 7.17435 19.8889 0
179 1 23.1578 23.0397 0
180 1 24.9381 16.499 0
181 1 4.94066 24.4495 0
182 1 4.16324 1.43548 0
183 1 27.226 8.13996 0
184 1 0.399206 22.8319 0
185 1 14.463 12.9627 0
186 1 6.47038 28.1691 0
187 1 28.8641 17.0179 0
188 1 26.4204 28.1411 0
189 1 25.612 25.6054 0
190 1 26.2212 23.7197 0
191 1 10.3942 3.26548 0
192 1 7.56802 7.15922 0
193 1 23.4572 24.6272 0
194 1 20.1627 27.5747 0
ITEM: TIMESTEP
2115
ITEM: NUMBER OF ATOMS
194
ITEM: BOX BOUNDS pp pp pp
0.0000000000000000e+00 3.0000000000000000e+01
0.0000000000000000e+00 3.0000000000000000e+01
-5.0000000000000000e-01 5.0000000000000000e-01
ITEM: ATOMS id type x y z
1 1 24.9897 3.31923 0
2 1 18.9841 6.13935 0
3 1 12.5837 24.6251 0
4 1 12.1722 27.3992 0
5 1 1.75361 23.338 0
6 1 11.591 1.75106 0
7 1 4.84504 27.7076 0
8 1 21.1678 22.7422 0
9 1 14.165 25.2887 0
10 1 3.94719 8.74529 0
11 1 0.0923125 6.4838 0
12 1 1.7453 14.5042 0
13 1 19.9636 23.3648 0
14 1 29.9812 28.9555 0
15 1 14.9734 27.6136 0
16 1 13.4282 17.0036 0
17 1 0.518635 26.7832 0
18 1 17.9217 5.39051 0
19 1 23.3189 26.3089 0
20 1 8.33579 24.6546 0
21 1 16.0767 28.3372 0
22 1 20.458 5.97702 0
23 1 4.3973 25.5708 0
24 1 21.7781 7.76066 0
25 1 1.98851 3.8755 0
26 1 26.0069 2.32023 0
27 1 2.35978 12.3122 0
28 1 18.9616 24.4385 0
29 1 10.3776 8.8415 0
30 1 23.1865 27.3637 0
31 1 11.9894 0.797393 0
32 1 2.53669 1.2301 0
33 1 10.1455 26.983 0
34 1 6.44626 11.0339 0
35 1 17.6793 3.06082 0
36 1 4.61212 17.5675 0
37 1 18.2678 13.6714 0
38 1 25.503 1.04436 0
39 1 23.965 11.2436 0
40 1 14.3627 3.18561 0
41 1 1.81906 6.60861 0
42 1 25.3627 14.1847 0
43 1 9.66625 20.8133 0
44 1 29.8887 16.4643 0
45 1 4.33611 26.623 0
46 1 6.02871 6.30754 0
47 1 11.1761 18.323 0
48 1 0.930055 29.5959 0
49 1 25.3018 7.213 0
50 1 11.6462 20.8105 0
51 1 2.13949 11.3602 0
52 1 2.13927 7.65717 0
53 1 9.57203 17.7709 0
54 1 5.5593 18.4831 0
55 1 23.0439 9.72623 0
56 1 29.7431 29.846 0
57 1 17.8428 11.5089 0
58 1 28.4142 9.22597 0
59 1 18.3142 3.88611 0
60 1 27.3347 25.6681 0
61 1 1.88845 10.1494 0
62 1 23.0023 7.6097 0
63 1 14.6591 26.0265 0
64 1 14.2608 18.5391 0
65 1 27.568 18.1121 0
66 1 9.8889 19.0752 0
67 1 1.16335 18.4915 0
68 1 9.12524 17.0312 0
69 1 12.9551 21.1404 0
70 1 13.559 19.0147 0
71 1 26.9448 24.523 0
72 1 22.2566 24.292 0
73 1 3.81372 29.8892 0
74 1 11.5681 7.60586 0
75 1 29.2516 22.7623 0
76 1 16.1252 24.7915 0
77 1 5.96258 24.631 0
78 1 5.23824 21.8707 0
79 1 16.5303 13.4665 0
80 1 9.73359 1.56791 0
81 1 2.47343 2.32622 0
82 1 30.0504 1.54001 0
83 1 19.4946 13.4081 0
84 1 26.7443 27.0052 0
85 1 16.0445 6.51568 0
86 1 22.8157 21.9141 0
87 1 10.2987 22.0216 0
88 1 24.5899 22.9588 0
89 1 23.9748 20.535 0
90 1 13.3571 28.0557 0
91 1 15.5412 5.51057 0
92 1 2.12424 16.0035 0
93 1 24.2741 8.77613 0
94 1 2.81092 14.8697 0
95 1 24.7191 1.73001 0
96 1 1.77879 0.681865 0
97 1 25.6982 28.7555 0
98 1 13.3404 2.07744 0
99 1 12.2686 17.9874 0
100 1 19.5898 22.3043 0
101 1 11.0871 24.5692 0
102 1 6.126 9.28334 0
103 1 24.5322 19.7515 0
104 1 17.135 3.73836 0
105 1 18.1682 25.5007 0
106 1 9.35589 23.9014 0
107 1 10.9077 0.198359 0
108 1 2.9174 11.2241 0
109 1 17.8871 9.23513 0
110 1 16.7594 26.9319 0
111 1 11.7213 2.84166 0
112 1 29.8185 14.1075 0
113 1 12.7048 8.32859 0
114 1 6.64001 10.1394 0
115 1 28.3056 1.92974 0
116 1 8.74688 3.94317 0
117 1 14.8742 6.52165 0
118 1 21.706 19.6213 0
119 1 26.7083 14.8861 0
120 1 18.2302 27.0466 0
121 1 23.7493 28.7848 0
122 1 24.7627 12.9879 0
123 1 25.7131 9.51285 0
124 1 27.7032 3.95466 0
125 1 21.5138 17.1971 0
126 1 7.23982 17.4835 0
127 1 11.5812 3.80302 0
128 1 24.7495 26.6631 0
129 1 22.6464 12.034 0
130 1 12.0047 13.5656 0
131 1 20.6607 3.47774 0
132 1 4.2768 23.6711 0
133 1 2.0364 20.2816 0
134 1 9.23573 16.0774 0
135 1 3.98003 28.1346 0
136 1 11.1828 26.1333 0
137 1 23.396 6.45665 0
138 1 27.1164 11.2429 0
139 1 1.26461 4.55629 0
140 1 6.56128 2.1996 0
141 1 5.71997 17.555 0
142 1 8.12469 8.08301 0
143 1 21.6911 6.06071 0
144 1 29.8404 18.1417 0
145 1 14.3096 14.3697 0
146 1 11.345 11.5366 0
147 1 1.15162 2.40353 0
148 1 18.4615 23.2528 0
149 1 16.4458 29.6087 0
150 1 14.02 8.92298 0
151 1 6.32746 12.9758 0
152 1 7.97825 13.4012 0
153 1 2.94772 25.8565 0
154 1 18.9227 3.02856 0
155 1 16.1245 2.61651 0
156 1 22.587 17.7867 0
157 1 23.7515 17.8298 0
158 1 15.4136 8.60075 0
159 1 11.954 19.4966 0
160 1 25.9617 22.0876 0
161 1 17.1499 17.0383 0
162 1 9.00374 26.6536 0
163 1 23.1676 19.2926 0
164 1 17.0995 8.35192 0
165 1 5.10319 26.7423 0
166 1 4.86235 12.4955 0
167 1 20.747 13.0654 0
168 1 28.9801 20.4088 0
169 1 3.80282 14.0114 0
170 1 28.5628 18.7496 0
171 1 2.29223 18.3511 0
172 1 8.86265 10.0656 0
173 1 10.1599 6.62373 0
174 1 9.29246 5.73121 0
175 1 24.3989 6.89923 0
176 1 22.6609 5.3026 0
177 1 18.8331 20.7907 0
178 1 7.26762 19.7124 0
179 1 23.2492 22.9484 0
180 1 24.9502 16.4752 0
181 1 4.99639 24.419 0
182 1 4.03269 1.24088 0
183 1 27.0955 8.01292 0
184 1 0.181344 22.8918 0
185 1 14.6449 13.0225 0
186 1 6.09476 28.177 0
187 1 28.9511 16.8835 0
188 1 26.3486 27.9732 0
189 1 25.4445 25.5213 0
190 1 25.9755 23.6976 0
191 1 10.2043 3.63021 0
192 1 7.60026 7.05331 0
193 1 23.7554 24.6751 0
194 1 20.3543 27.2755 0
ITEM: TIMESTEP
2130
ITEM: NUMBER OF ATOMS
194
ITEM: BOX BOUNDS pp pp pp
0.0000000000000000e+00 3.0000000000000000e+01
0.0000000000000000e+00 3.0000000000000000e+01
-5.0000000000000000e-01 5.0000000000000000e-01
ITEM: ATOMS id type x y z
1 1 25.0135 3.47051 0
2 1 19.2092 5.7951 0
3 1 12.3496 24.3928 0
4 1 11.8668 27.4378 0
5 1 2.06809 23.2669 0
6 1 11.655 1.69328 0
7 1 4.86145 27.7256 0
8 1 21.5408 22.6428 0
9 1 14.1297 24.8369 0
10 1 3.44014 8.92944 0
11 1 29.8313 6.38644 0
12 1 1.95148 14.4753 0
13 1 19.9249 23.2019 0
14 1 0.119183 28.7243 0
15 1 15.5308 27.5394 0
16 1 13.252 17.1714 0
17 1 0.842022 26.8834 0
18 1 18.0938 4.96303 0
19 1 23.4098 26.403 0
20 1 8.00224 24.5098 0
21 1 16.3243 28.4479 0
22 1 20.6556 5.74438 0
23 1 4.07711 25.846 0
24 1 21.3279 7.60386 0
25 1 2.03579 4.27207 0
26 1 26.3501 2.79501 0
27 1 2.38913 12.4702 0
28 1 19.2324 24.4723 0
29 1 10.0005 9.07821 0
30 1 23.1166 27.2542 0
31 1 11.8076 0.751444 0
32 1 2.3341 0.907562 0
33 1 10.0048 27.4145 0
34 1 6.38914 11.2776 0
35 1 17.6913 2.90729 0
36 1 5.07112 17.6663 0
37 1 18.4978 13.5902 0
38 1 26.0201 0.740099 0
39 1 23.8347 11.3526 0
40 1 14.1571 3.40995 0
41 1 1.92178 6.94741 0
42 1 25.3501 14.012 0
43 1 10.1834 20.9994 0
44 1 29.887 16.0183 0
45 1 3.96115 26.9201 0
46 1 6.19955 6.05732 0
47 1 10.9699 18.2806 0
48 1 1.13576 29.2041 0
49 1 25.1915 7.48087 0
50 1 11.1715 21.0558 0
51 1 1.54199 11.3847 0
52 1 2.15078 7.91567 0
53 1 9.83377 17.9736 0
54 1 5.65324 18.6089 0
55 1 22.7889 9.58208 0
56 1 29.4907 29.6827 0
57 1 17.7285 11.4518 0
58 1 28.5729 9.54177 0
59 1 18.5578 3.71779 0
60 1 27.559 25.6576 0
61 1 1.63187 9.72331 0
62 1 23.2432 7.91089 0
63 1 14.2685 26.2579 0
64 1 14.4681 18.3219 0
65 1 27.2232 18.4513 0
66 1 10.0727 19.3002 0
67 1 1.39348 18.1674 0
68 1 9.13578 17.0786 0
69 1 13.4206 21.475 0
70 1 13.1972 19.1086 0
71 1 26.9382 24.4418 0
72 1 22.2679 24.1743 0
73 1 3.93304 30.0059 0
74 1 11.1767 7.38524 0
75 1 28.9703 22.487 0
76 1 16.0844 24.6421 0
77 1 5.9388 24.5707 0
78 1 5.04002 21.8297 0
79 1 16.177 13.5678 0
80 1 9.73258 1.39025 0
81 1 2.45606 2.48352 0
82 1 0.149348 1.36366 0
83 1 19.3194 13.7637 0
84 1 27.1375 26.7012 0
85 1 15.909 6.71102 0
86 1 22.9068 21.6573 0
87 1 9.9367 22.0161 0
88 1 24.4711 23.091 0
89 1 23.998 20.8034 0
90 1 13.4195 27.9181 0
91 1 15.4899 5.67143 0
92 1 2.60087 16.3562 0
93 1 24.369 8.53977 0
94 1 2.82284 14.584 0
95 1 24.6287 1.63618 0
96 1 1.42502 0.370359 0
97 1 25.5009 28.9436 0
98 1 13.4075 2.57871 0
99 1 12.5853 18.1466 0
100 1 19.3263 22.5484 0
101 1 11.0678 24.6625 0
102 1 5.79405 9.89724 0
103 1 24.6531 19.6903 0
104 1 17.0147 3.79384 0
105 1 18.3296 25.4424 0
106 1 9.06523 23.4305 0
107 1 10.6762 29.8693 0
108 1 2.95989 11.2763 0
109 1 18.0728 9.28126 0
110 1 16.4883 27.117 0
111 1 12.3031 3.02345 0
112 1 29.763 14.6587 0
113 1 12.7289 8.45191 0
114 1 6.95992 9.98921 0
115 1 28.1372 2.17768 0
116 1 8.42449 4.21447 0
117 1 14.8411 6.33355 0
118 1 22.2052 19.7348 0
119 1 27.0004 15.3625 0
120 1 18.4293 26.633 0
121 1 23.7202 28.885 0
122 1 24.6801 12.946 0
123 1 25.7844 9.56609 0
124 1 27.3585 4.17586 0
125 1 21.1218 17.6624 0
126 1 7.54248 17.2608 0
127 1 11.5513 3.78172 0
128 1 24.6343 26.6783 0
129 1 23.0008 12.0138 0
130 1 12.6121 13.9101 0
131 1 20.8825 3.29346 0
132 1 4.51991 23.2806 0
133 1 1.9925 20.1075 0
134 1 9.49899 16.1309 0
135 1 3.5812 28.3771 0
136 1 10.8511 26.5154 0
137 1 23.1824 6.50584 0
138 1 27.4026 11.4089 0
139 1 1.32586 4.93994 0
140 1 6.78666 1.69957 0
141 1 5.93772 17.4808 0
142 1 7.92527 7.75872 0
143 1 21.4779 6.01118 0
144 1 29.8214 17.7999 0
145 1 14.1656 13.4952 0
146 1 11.628 11.6537 0
147 1 0.910737 2.41563 0
148 1 18.2586 23.0033 0
149 1 16.8731 29.503 0
150 1 13.7721 9.04395 0
151 1 6.89288 13.2709 0
152 1 7.9044 13.8398 0
153 1 3.04114 25.5252 0
154 1 18.926 2.8892 0
155 1 16.1434 2.52235 0
156 1 22.4571 17.8977 0
157 1 23.7346 17.8726 0
158 1 15.0099 8.57325 0
159 1 11.6712 19.5857 0
160 1 25.7666 22.281 0
161 1 17.2478 17.2977 0
162 1 9.13931 26.3083 0
163 1 23.0331 19.5057 0
164 1 17.1076 8.1889 0
165 1 5.52254 26.641 0
166 1 4.50263 12.3104 0
167 1 20.8479 12.9502 0
168 1 28.8193 20.4131 0
169 1 3.51682 14.0561 0
170 1 28.6945 18.4969 0
171 1 2.36802 18.4178 0
172 1 9.48236 9.89144 0
173 1 10.3617 6.69802 0
174 1 8.7914 6.24564 0
175 1 24.3238 6.42753 0
176 1 23.0609 5.39469 0
177 1 18.669 20.6141 0
178 1 7.36068 19.5355 0
179 1 23.3468 22.8646 0
180 1 24.9618 16.4519 0
181 1 4.99884 24.3825 0
182 1 3.89821 1.04322 0
183 1 26.9652 7.88672 0
184 1 0.105102 22.961 0
185 1 14.8778 13.0266 0
186 1 5.71604 28.183 0
187 1 29.0143 16.7618 0
188 1 26.5577 27.679 0
189 1 25.2757 25.4402 0
190 1 25.7314 23.6765 0
191 1 10.0165 3.99521 0
192 1 7.62404 6.92729 0
193 1 24.0517 24.7228 0
194 1 20.5457 26.9763 0
ITEM: TIMESTEP
2145
ITEM: NUMBER OF ATOMS
194
ITEM: BOX BOUNDS pp pp pp
0.0000000000000000e+00 3.0000000000000000e+01
0.0000000000000000e+00 3.0000000000000000e+01
-5.0000000000000000e-01 5.0000000000000000e-01
ITEM: ATOMS id type x y z
1 1 25.0396 3.61991 0
2 1 19.4335 5.44822 0
3 1 12.1115 24.1619 0
4 1 11.5593 27.4743 0
5 1 2.38221 23.1957 0
6 1 11.6583 1.88535 0
7 1 4.7303 27.6484 0
8 1 21.9146 22.5442 0
9 1 14.0917 24.3815 0
10 1 2.93112 9.11257 0
11 1 29.5708 6.28891 0
12 1 1.79611 14.3848 0
13 1 20.0345 23.2275 0
14 1 0.263069 28.4793 0
15 1 15.6432 27.6949 0
16 1 13.0769 17.3374 0
17 1 1.16525 26.9841 0
18 1 18.2668 4.53735 0
19 1 23.5664 26.2961 0
20 1 7.6703 24.3635 0
21 1 16.5707 28.5544 0
22 1 20.3874 5.39042 0
23 1 3.76663 26.1177 0
24 1 20.879 7.44499 0
25 1 2.24665 4.51384 0
26 1 26.692 3.27138 0
27 1 2.41983 12.6241 0
28 1 19.501 24.5053 0
29 1 9.77493 8.86319 0
30 1 22.9868 27.3458 0
31 1 11.6844 0.456643 0
32 1 2.16237 0.605767 0
33 1 9.8659 27.8399 0
34 1 6.33128 11.5192 0
35 1 17.7595 2.68951 0
36 1 5.22204 17.8144 0
37 1 18.3587 13.4478 0
38 1 26.5356 0.436838 0
39 1 23.8057 11.3576 0
40 1 14.0014 3.69678 0
41 1 2.01243 7.23404 0
42 1 25.3349 13.8351 0
43 1 10.0415 21.1003 0
44 1 29.9501 15.8489 0
45 1 3.56595 27.2283 0
46 1 6.3718 5.80795 0
47 1 10.8699 18.2591 0
48 1 1.34094 28.8175 0
49 1 25.0891 7.74212 0
50 1 11.3588 21.373 0
51 1 0.91791 11.4126 0
52 1 2.17513 8.22815 0
53 1 10.0102 18.1945 0
54 1 5.7475 18.7446 0
55 1 22.535 9.43685 0
56 1 29.2353 29.5338 0
57 1 17.6142 11.3947 0
58 1 28.7314 9.85763 0
59 1 18.7002 3.74624 0
60 1 27.8658 25.3951 0
61 1 1.3765 9.29827 0
62 1 23.4845 8.20989 0
63 1 13.8808 26.4941 0
64 1 14.6769 18.1018 0
65 1 26.8814 18.7908 0
66 1 10.2606 19.5196 0
67 1 1.58917 17.834 0
68 1 9.11217 17.1396 0
69 1 13.8857 21.8094 0
70 1 12.8353 19.2292 0
71 1 26.9302 24.3628 0
72 1 22.2802 24.0547 0
73 1 4.06466 0.0482081 0
74 1 10.9847 7.37033 0
75 1 28.6865 22.2115 0
76 1 16.0433 24.4929 0
77 1 6.01546 24.531 0
78 1 4.84109 21.7911 0
79 1 15.8228 13.6699 0
80 1 9.73272 1.21191 0
81 1 2.43629 2.63883 0
82 1 0.252224 1.18934 0
83 1 19.5143 14.1795 0
84 1 27.5987 26.3385 0
85 1 15.7715 6.90577 0
86 1 23.0013 21.4033 0
87 1 9.57196 22.0217 0
88 1 24.3581 23.2254 0
89 1 24.0179 21.0713 0
90 1 13.4808 27.7789 0
91 1 15.5606 5.72097 0
92 1 3.07742 16.7077 0
93 1 24.4564 8.3091 0
94 1 2.80471 14.6864 0
95 1 24.5404 1.54223 0
96 1 1.03954 0.0366364 0
97 1 25.3039 29.1308 0
98 1 13.5912 2.96898 0
99 1 12.895 18.2858 0
100 1 18.9281 22.6029 0
101 1 11.0529 24.7555 0
102 1 5.42553 10.4884 0
103 1 24.7713 19.63 0
104 1 16.8457 3.91378 0
105 1 18.4919 25.366 0
106 1 8.77379 22.96 0
107 1 10.4471 29.5432 0
108 1 3.02862 11.3286 0
109 1 18.2563 9.32521 0
110 1 16.6649 27.0796 0
111 1 12.7414 3.20307 0
112 1 29.6437 14.9345 0
113 1 12.7526 8.57439 0
114 1 7.31704 9.86431 0
115 1 27.9683 2.426 0
116 1 8.1039 4.48589 0
117 1 14.6883 6.25817 0
118 1 22.2205 19.9907 0
119 1 27.2922 15.8388 0
120 1 18.6303 26.2341 0
121 1 23.6918 28.984 0
122 1 24.5994 12.9076 0
123 1 25.8552 9.6183 0
124 1 27.013 4.39539 0
125 1 20.7339 18.1286 0
126 1 7.84534 17.0385 0
127 1 11.4946 3.80786 0
128 1 24.5162 26.6898 0
129 1 23.2543 12.0984 0
130 1 13.2212 14.2536 0
131 1 21.1036 3.1092 0
132 1 4.76477 22.8909 0
133 1 1.94875 19.932 0
134 1 9.77492 16.1417 0
135 1 3.1854 28.6174 0
136 1 10.5179 26.9029 0
137 1 22.9679 6.55734 0
138 1 27.6887 11.5746 0
139 1 1.22339 5.47787 0
140 1 7.01204 1.19955 0
141 1 6.46574 17.3473 0
142 1 7.8032 7.6515 0
143 1 21.7308 6.08475 0
144 1 29.7975 17.4566 0
145 1 13.7314 12.8763 0
146 1 11.911 11.7709 0
147 1 0.669775 2.42355 0
148 1 18.0428 22.7584 0
149 1 17.2986 29.3933 0
150 1 13.5283 9.16357 0
151 1 7.42725 13.5308 0
152 1 7.8614 14.3133 0
153 1 3.12888 25.1902 0
154 1 19.0229 2.55157 0
155 1 16.1651 2.43052 0
156 1 22.3285 18.0094 0
157 1 23.7128 17.9165 0
158 1 14.6021 8.54691 0
159 1 11.3864 19.6729 0
160 1 25.5692 22.4795 0
161 1 17.3457 17.557 0
162 1 9.27828 25.9655 0
163 1 23.386 19.5762 0
164 1 17.1172 8.02787 0
165 1 5.96119 26.5437 0
166 1 4.14199 12.1253 0
167 1 20.9476 12.8356 0
168 1 28.6585 20.4172 0
169 1 3.62199 13.7747 0
170 1 28.8274 18.241 0
171 1 2.47652 18.4943 0
172 1 9.95068 10.1684 0
173 1 10.3628 6.56677 0
174 1 8.35107 6.75822 0
175 1 24.2462 5.95769 0
176 1 23.4604 5.48845 0
177 1 18.5051 20.4381 0
178 1 7.45327 19.3582 0
179 1 23.4407 22.7764 0
180 1 24.9731 16.4288 0
181 1 4.89906 24.3239 0
182 1 3.74828 0.919099 0
183 1 26.8342 7.76077 0
184 1 0.031833 23.0302 0
185 1 15.4004 12.7751 0
186 1 5.47992 28.2783 0
187 1 29.0789 16.6442 0
188 1 26.6127 27.6927 0
189 1 25.1042 25.361 0
190 1 25.4862 23.653 0
191 1 9.82922 4.36015 0
192 1 7.51011 6.58576 0
193 1 24.3494 24.7704 0
194 1 20.7368 26.6771 0
ITEM: TIMESTEP
2160
ITEM: NUMBER OF ATOMS
194
ITEM: BOX BOUNDS pp pp pp
0.0000000000000000e+00 3.0000000000000000e+01
0.0000000000000000e+00 3.0000000000000000e+01
-5.0000000000000000e-01 5.0000000000000000e-01
ITEM: ATOMS id type x y z
1 1 25.067 3.76899 0
2 1 19.3673 5.12083 0
3 1 11.8694 23.9336 0
4 1 11.2484 27.5095 0
5 1 2.69642 23.1249 0
6 1 11.6622 2.07721 0
7 1 4.46309 27.4744 0
8 1 22.2923 22.4468 0
9 1 14.0538 23.9266 0
10 1 2.44863 9.35264 0
11 1 29.3109 6.19112 0
12 1 1.61246 14.2885 0
13 1 20.1477 23.262 0
14 1 0.406879 28.237 0
15 1 15.4421 28.0171 0
16 1 12.9107 17.4195 0
17 1 1.48818 27.0867 0
18 1 18.2895 4.35645 0
19 1 23.6831 26.1552 0
20 1 7.33744 24.2168 0
21 1 16.8129 28.6539 0
22 1 20.4046 5.01404 0
23 1 3.4614 26.3926 0
24 1 20.4309 7.28432 0
25 1 2.45587 4.75657 0
26 1 27.0369 3.73217 0
27 1 2.45316 12.7759 0
28 1 19.7668 24.5377 0
29 1 9.60645 8.43988 0
30 1 22.8553 27.4464 0
31 1 11.5592 0.162329 0
32 1 1.98848 0.302352 0
33 1 9.72908 28.2649 0
34 1 6.27104 11.7574 0
35 1 17.8323 2.47619 0
36 1 5.36367 17.9531 0
37 1 18.2064 13.3017 0
38 1 27.0505 0.133196 0
39 1 23.9576 11.1567 0
40 1 14.0666 4.33126 0
41 1 2.09484 7.47562 0
42 1 25.3172 13.6549 0
43 1 9.60129 21.1368 0
44 1 0.175935 16.333 0
45 1 3.17506 27.5409 0
46 1 6.53584 5.54898 0
47 1 11.1708 18.2887 0
48 1 1.54504 28.4347 0
49 1 25.3029 7.739 0
50 1 11.8566 21.7262 0
51 1 0.294831 11.4406 0
52 1 2.17667 8.5314 0
53 1 9.78371 18.3705 0
54 1 5.84905 18.8885 0
55 1 22.2826 9.29006 0
56 1 28.983 29.3831 0
57 1 17.5001 11.3376 0
58 1 28.8896 10.1739 0
59 1 18.9885 3.53215 0
60 1 28.2967 24.7441 0
61 1 1.12537 8.87059 0
62 1 23.5097 8.51827 0
63 1 13.4926 26.7282 0
64 1 14.8838 17.8814 0
65 1 26.54 19.1303 0
66 1 10.3405 19.7242 0
67 1 1.77676 17.497 0
68 1 9.08993 17.2028 0
69 1 14.3509 22.1439 0
70 1 12.4731 19.441 0
71 1 26.9228 24.2859 0
72 1 22.293 23.9322 0
73 1 4.23968 29.937 0
74 1 11.0197 7.60088 0
75 1 28.4045 21.9362 0
76 1 16.0017 24.3436 0
77 1 6.09971 24.4925 0
78 1 4.63327 21.7097 0
79 1 15.48 13.7984 0
80 1 9.73378 1.03287 0
81 1 2.41561 2.79401 0
82 1 0.358779 1.01598 0
83 1 19.7227 14.5987 0
84 1 27.9322 26.3626 0
85 1 15.6299 7.09482 0
86 1 23.0733 21.1537 0
87 1 9.20807 22.0433 0
88 1 24.2757 23.3753 0
89 1 24.0592 21.3356 0
90 1 13.5426 27.6415 0
91 1 15.6991 5.72263 0
92 1 3.5533 17.0597 0
93 1 24.4435 8.33358 0
94 1 2.7002 14.8944 0
95 1 24.4524 1.44842 0
96 1 0.65575 29.7021 0
97 1 25.106 29.3181 0
98 1 14.0359 2.87642 0
99 1 13.1944 18.4189 0
100 1 18.7163 22.6235 0
101 1 11.0421 24.8462 0
102 1 5.06017 11.0826 0
103 1 24.8855 19.5708 0
104 1 16.6801 4.03117 0
105 1 18.6144 25.03 0
106 1 8.46923 22.4991 0
107 1 10.2192 29.2178 0
108 1 3.09387 11.3824 0
109 1 18.439 9.36849 0
110 1 17.1583 26.8816 0
111 1 12.693 3.5187 0
112 1 29.3628 14.5581 0
113 1 12.7021 8.63383 0
114 1 7.67299 9.74 0
115 1 27.7974 2.6759 0
116 1 7.78402 4.75789 0
117 1 14.4724 6.23721 0
118 1 22.1104 20.2865 0
119 1 27.5843 16.3154 0
120 1 18.8752 26.0914 0
121 1 23.6647 29.0823 0
122 1 24.5189 12.8705 0
123 1 25.9254 9.66954 0
124 1 26.6649 4.62902 0
125 1 20.348 18.595 0
126 1 8.14782 16.817 0
127 1 11.4409 3.83182 0
128 1 24.4427 26.7224 0
129 1 23.3293 12.3907 0
130 1 13.8317 14.5949 0
131 1 21.3245 2.92501 0
132 1 5.01908 22.5476 0
133 1 1.90583 19.754 0
134 1 10.0494 16.1544 0
135 1 2.79089 28.8554 0
136 1 10.1854 27.2919 0
137 1 22.7604 6.6083 0
138 1 27.9751 11.74 0
139 1 1.12223 6.01498 0
140 1 7.23743 0.69952 0
141 1 7.00005 17.2145 0
142 1 7.57334 7.7286 0
143 1 21.9837 6.15841 0
144 1 29.7894 17.1375 0
145 1 13.2926 12.2613 0
146 1 12.1946 11.8884 0
147 1 0.42829 2.42682 0
148 1 17.6361 22.5423 0
149 1 17.7249 29.2842 0
150 1 13.3639 9.34346 0
151 1 7.85408 13.629 0
152 1 7.92587 14.9484 0
153 1 3.21263 24.8527 0
154 1 19.1167 2.21098 0
155 1 16.1891 2.34041 0
156 1 22.2023 18.1218 0
157 1 23.6873 17.9617 0
158 1 14.1893 8.5227 0
159 1 11.2116 19.767 0
160 1 25.3687 22.6779 0
161 1 17.4437 17.8164 0
162 1 9.4191 25.6241 0
163 1 23.869 19.6083 0
164 1 17.1268 7.86713 0
165 1 6.39808 26.448 0
166 1 3.78228 11.9426 0
167 1 21.0471 12.7213 0
168 1 28.4976 20.4219 0
169 1 3.84096 13.391 0
170 1 28.9642 17.9803 0
171 1 2.59219 18.5757 0
172 1 10.3622 10.6531 0
173 1 10.1362 6.19055 0
174 1 8.35149 7.15663 0
175 1 24.5973 5.70217 0
176 1 23.4261 5.37241 0
177 1 18.3412 20.2624 0
178 1 7.54506 19.1804 0
179 1 23.5051 22.6705 0
180 1 24.9842 16.4061 0
181 1 4.79206 24.2615 0
182 1 3.55221 0.947071 0
183 1 26.7017 7.63508 0
184 1 29.9568 23.0982 0
185 1 15.9142 12.4953 0
186 1 5.37445 28.4663 0
187 1 29.1228 16.506 0
188 1 26.6681 27.7054 0
189 1 25.1095 25.4488 0
190 1 25.2386 23.6335 0
191 1 9.64191 4.72513 0
192 1 7.07242 6.18332 0
193 1 24.469 24.6503 0
194 1 20.9278 26.3778 0
ITEM: TIMESTEP
2175
ITEM: NUMBER OF ATOMS
194
ITEM: BOX BOUNDS pp pp pp
0.0000000000000000e+00 3.0000000000000000e+01
0.0000000000000000e+00 3.0000000000000000e+01
-5.0000000000000000e-01 5.0000000000000000e-01
ITEM: ATOMS id type x y z
1 1 25.0954 3.91897 0
2 1 19.0968 4.80702 0
3 1 11.624 23.7088 0
4 1 10.9419 27.5461 0
5 1 3.01116 23.0548 0
6 1 11.6663 2.26999 0
7 1 4.19051 27.3004 0
8 1 22.6676 22.3487 0
9 1 14.0164 23.4705 0
10 1 2.07251 9.87104 0
11 1 29.0518 6.09324 0
12 1 1.43252 14.1933 0
13 1 20.2579 23.3001 0
14 1 0.554822 27.997 0
15 1 15.2434 28.34 0
16 1 12.7405 17.4559 0
17 1 1.81211 27.187 0
18 1 18.2452 4.27706 0
19 1 23.7141 25.9547 0
20 1 7.00723 24.0684 0
21 1 17.0518 28.7503 0
22 1 20.6236 4.6209 0
23 1 3.15623 26.6716 0
24 1 19.9834 7.12295 0
25 1 2.66442 4.99947 0
26 1 27.3999 4.13513 0
27 1 2.49054 12.9266 0
28 1 20.0288 24.5683 0
29 1 9.438 8.01517 0
30 1 22.7261 27.5451 0
31 1 11.4324 -0.132065 0
32 1 1.81305 -0.00363229 0
33 1 9.39606 28.4488 0
34 1 6.20759 11.9937 0
35 1 17.9098 2.26416 0
36 1 5.49855 18.0769 0
37 1 18.0544 13.1556 0
38 1 27.5656 29.8291 0
39 1 24.1098 10.957 0
40 1 14.1357 4.97705 0
41 1 2.17555 7.67704 0
42 1 25.3 13.4751 0
43 1 9.19384 21.0849 0
44 1 0.614472 16.497 0
45 1 2.78645 27.8532 0
46 1 6.4351 4.94861 0
47 1 11.4774 18.3232 0
48 1 1.74942 28.0594 0
49 1 25.606 7.67017 0
50 1 12.3539 22.0792 0
51 1 -0.329136 11.4679 0
52 1 2.06957 8.59622 0
53 1 9.55145 18.5453 0
54 1 5.95933 19.0464 0
55 1 22.0332 9.14161 0
56 1 28.7323 29.2325 0
57 1 17.3856 11.281 0
58 1 29.0482 10.4916 0
59 1 19.3447 3.21311 0
60 1 28.7247 24.0934 0
61 1 0.877752 8.44268 0
62 1 23.2669 8.85704 0
63 1 13.071 26.7667 0
64 1 15.0894 17.6613 0
65 1 26.1972 19.4703 0
66 1 10.0558 19.9017 0
67 1 1.96665 17.1627 0
68 1 9.10958 17.2887 0
69 1 14.8156 22.4796 0
70 1 12.1416 19.6457 0
71 1 26.9171 24.21 0
72 1 22.3069 23.8063 0
73 1 4.41561 29.8205 0
74 1 11.0529 7.83089 0
75 1 28.1233 21.6585 0
76 1 15.9597 24.1942 0
77 1 6.17705 24.455 0
78 1 4.37741 21.4978 0
79 1 15.1376 13.9285 0
80 1 9.73552 0.85312 0
81 1 2.39465 2.94931 0
82 1 0.467252 0.841454 0
83 1 19.9307 15.0173 0
84 1 28.2654 26.3856 0
85 1 15.4866 7.27871 0
86 1 23.1013 20.9012 0
87 1 9.0527 22.0162 0
88 1 24.134 23.5164 0
89 1 24.1399 21.6053 0
90 1 13.638 27.7 0
91 1 15.8344 5.72903 0
92 1 4.02844 17.4127 0
93 1 24.6089 8.39486 0
94 1 2.59303 15.0996 0
95 1 24.3644 1.35444 0
96 1 0.273622 29.368 0
97 1 24.9055 29.505 0
98 1 14.4767 2.77245 0
99 1 13.4975 18.5947 0
100 1 18.5568 22.6423 0
101 1 11.0341 24.9336 0
102 1 4.69554 11.68 0
103 1 25.1355 19.4986 0
104 1 16.516 4.14787 0
105 1 18.729 24.6276 0
106 1 7.9246 22.1737 0
107 1 10.1831 29.1481 0
108 1 2.89097 11.2102 0
109 1 18.6213 9.41163 0
110 1 17.6515 26.6847 0
111 1 12.6396 3.83579 0
112 1 29.0824 14.1831 0
113 1 12.5818 8.62236 0
114 1 8.02893 9.61529 0
115 1 27.6238 2.92982 0
116 1 7.46228 5.03294 0
117 1 14.2622 6.21623 0
118 1 22.0047 20.5849 0
119 1 27.8793 16.7922 0
120 1 19.1329 26.0125 0
121 1 23.6403 29.1804 0
122 1 24.4342 12.8308 0
123 1 25.9953 9.71997 0
124 1 26.2999 4.91621 0
125 1 19.9627 19.0612 0
126 1 8.41032 16.5735 0
127 1 11.3919 3.85382 0
128 1 24.4564 26.8124 0
129 1 23.4074 12.684 0
130 1 14.4432 14.9352 0
131 1 21.545 2.74096 0
132 1 5.32122 22.3363 0
133 1 1.86505 19.5723 0
134 1 10.3211 16.1701 0
135 1 2.39349 29.0899 0
136 1 9.85391 27.6654 0
137 1 22.7941 6.81219 0
138 1 28.2622 11.9046 0
139 1 1.02159 6.55242 0
140 1 7.46285 0.199501 0
141 1 7.53615 17.0822 0
142 1 7.16307 7.98121 0
143 1 21.9981 6.07543 0
144 1 29.6985 17.2128 0
145 1 13.1852 11.6497 0
146 1 12.1466 12.0027 0
147 1 0.186945 2.42662 0
148 1 17.1793 22.3291 0
149 1 18.1521 29.1759 0
150 1 13.2745 9.59102 0
151 1 8.27779 13.7215 0
152 1 7.9937 15.5904 0
153 1 3.29805 24.5163 0
154 1 19.2053 1.87624 0
155 1 16.2145 2.25141 0
156 1 22.0782 18.2346 0
157 1 23.6597 18.0086 0
158 1 13.7711 8.5011 0
159 1 11.3686 19.8926 0
160 1 25.1784 22.7734 0
161 1 17.5416 18.0759 0
162 1 9.56116 25.283 0
163 1 24.2157 19.654 0
164 1 17.1356 7.70615 0
165 1 6.8346 26.3521 0
166 1 3.69094 11.9908 0
167 1 21.1466 12.6071 0
168 1 28.3364 20.4291 0
169 1 4.05685 13.0036 0
170 1 29.0779 17.7377 0
171 1 2.70368 18.657 0
172 1 10.7738 11.1375 0
173 1 9.91156 5.81794 0
174 1 8.53703 7.37935 0
175 1 25.1253 5.52721 0
176 1 23.2121 5.17957 0
177 1 18.1773 20.0869 0
178 1 7.6358 19.0018 0
179 1 23.557 22.548 0
180 1 24.9951 16.3837 0
181 1 4.68818 24.199 0
182 1 3.35362 0.978603 0
183 1 26.5666 7.50978 0
184 1 29.8811 23.1662 0
185 1 16.4272 12.2141 0
186 1 5.26687 28.6528 0
187 1 29.0577 16.2742 0
188 1 26.7238 27.7177 0
189 1 25.2403 25.6687 0
190 1 25.058 23.7376 0
191 1 9.45293 5.08812 0
192 1 6.89889 6.12062 0
193 1 24.4583 24.4044 0
194 1 21.1185 26.0783 0
ITEM: TIMESTEP
2190
ITEM: NUMBER OF ATOMS
194
ITEM: BOX BOUNDS pp pp pp
0.0000000000000000e+00 3.0000000000000000e+01
0.0000000000000000e+00 3.0000000000000000e+01
-5.0000000000000000e-01 5.0000000000000000e-01
ITEM: ATOMS id type x y z
1 1 25.1256 4.07218 0
2 1 18.9341 4.55126 0
3 1 11.3771 23.4871 0
4 1 10.6405 27.5836 0
5 1 3.32705 22.9876 0
6 1 11.6704 2.46494 0
7 1 3.9134 27.1264 0
8 1 22.8271 22.1983 0
9 1 13.9817 23.0112 0
10 1 1.69993 10.4002 0
11 1 28.793 5.99536 0
12 1 1.25576 14.0989 0
13 1 20.3663 23.3432 0
14 1 0.708111 27.7598 0
15 1 15.0443 28.6626 0
16 1 12.5701 17.4968 0
17 1 2.11956 26.9497 0
18 1 18.0964 4.13559 0
19 1 23.7403 25.7473 0
20 1 6.85648 23.8209 0
21 1 17.2937 28.8475 0
22 1 20.8402 4.22766 0
23 1 2.90605 26.9513 0
24 1 19.536 6.96139 0
25 1 2.87278 5.24218 0
26 1 27.7627 4.53244 0
27 1 2.53118 13.0763 0
28 1 20.2867 24.5958 0
29 1 9.48299 7.67762 0
30 1 22.5981 27.6433 0
31 1 11.3033 29.5726 0
32 1 1.50248 29.8698 0
33 1 8.74792 28.5271 0
34 1 6.14181 12.2296 0
35 1 17.9911 2.05199 0
36 1 5.62757 18.1909 0
37 1 17.9016 13.0087 0
38 1 27.9821 29.6037 0
39 1 24.2619 10.7584 0
40 1 14.2169 5.48191 0
41 1 2.26786 7.74466 0
42 1 25.2895 13.3001 0
43 1 8.81285 20.9105 0
44 1 1.13108 16.558 0
45 1 2.65957 28.1623 0
46 1 6.2853 4.29193 0
47 1 11.7866 18.3606 0
48 1 1.65384 28.0364 0
49 1 25.6974 7.65157 0
50 1 12.8513 22.4329 0
51 1 29.1038 11.5943 0
52 1 1.94112 8.78442 0
53 1 9.31901 18.7187 0
54 1 6.07523 19.2132 0
55 1 21.7887 8.99202 0
56 1 28.5827 29.0032 0
57 1 17.2828 11.2048 0
58 1 29.182 10.6872 0
59 1 19.6981 2.89277 0
60 1 29.1073 23.4624 0
61 1 0.636378 8.01399 0
62 1 23.0208 9.19608 0
63 1 12.6269 26.7287 0
64 1 15.2944 17.4415 0
65 1 26.2178 19.8893 0
66 1 9.76505 20.0784 0
67 1 2.15509 16.8285 0
68 1 9.17123 17.4141 0
69 1 15.2778 22.8188 0
70 1 12.2754 19.6978 0
71 1 26.9113 24.1341 0
72 1 22.3226 23.6772 0
73 1 4.59149 29.7032 0
74 1 11.0856 8.06145 0
75 1 27.8424 21.3787 0
76 1 15.9173 24.044 0
77 1 6.07226 24.516 0
78 1 4.1196 21.2816 0
79 1 14.7936 14.061 0
80 1 9.73791 0.672033 0
81 1 2.37365 3.10471 0
82 1 0.576851 0.664754 0
83 1 20.1386 15.4359 0
84 1 28.5984 26.4087 0
85 1 15.3432 7.46002 0
86 1 23.1278 20.6516 0
87 1 8.92168 22.0884 0
88 1 23.8408 23.5265 0
89 1 24.2596 21.8183 0
90 1 13.7569 27.8355 0
91 1 15.9676 5.73666 0
92 1 4.50459 17.767 0
93 1 24.7764 8.45465 0
94 1 2.48331 15.3032 0
95 1 24.2766 1.25976 0
96 1 29.8922 29.0331 0
97 1 24.7003 29.6913 0
98 1 14.9181 2.66876 0
99 1 13.7979 18.7684 0
100 1 18.3948 22.6612 0
101 1 11.0254 25.0177 0
102 1 4.56518 12.0345 0
103 1 25.2389 19.3185 0
104 1 16.3525 4.26502 0
105 1 18.8495 24.2275 0
106 1 7.33101 21.8691 0
107 1 10.3577 29.3394 0
108 1 2.59137 10.9531 0
109 1 18.8033 9.45479 0
110 1 18.1463 26.4872 0
111 1 12.5814 4.15256 0
112 1 28.802 13.8082 0
113 1 12.4534 8.61097 0
114 1 8.38479 9.48967 0
115 1 27.4491 3.18897 0
116 1 7.15605 5.30524 0
117 1 14.043 6.33642 0
118 1 21.9025 20.8847 0
119 1 28.1764 17.2651 0
120 1 19.3891 25.9301 0
121 1 23.6203 29.2793 0
122 1 24.3843 12.7857 0
123 1 26.0646 9.76967 0
124 1 26.2477 5.03917 0
125 1 19.5772 19.5276 0
126 1 8.87371 16.4899 0
127 1 11.3483 3.87414 0
128 1 24.4788 26.905 0
129 1 23.4442 12.9764 0
130 1 15.0566 15.2728 0
131 1 21.7651 2.55721 0
132 1 5.62506 22.1301 0
133 1 1.82775 19.3867 0
134 1 10.5912 16.1872 0
135 1 2.12744 29.1361 0
136 1 9.62323 27.8852 0
137 1 22.9203 7.08187 0
138 1 28.5172 12.0925 0
139 1 0.921953 7.09189 0
140 1 7.68848 29.6994 0
141 1 8.02746 16.9821 0
142 1 6.75485 8.23305 0
143 1 21.9222 5.92401 0
144 1 29.9118 17.0964 0
145 1 13.4578 11.0238 0
146 1 11.7316 12.142 0
147 1 29.946 2.42469 0
148 1 16.7256 22.1168 0
149 1 18.5758 29.0664 0
150 1 13.1876 9.83537 0
151 1 8.70141 13.8148 0
152 1 7.86657 16.0041 0
153 1 3.38639 24.1766 0
154 1 19.2901 1.54721 0
155 1 16.2404 2.16327 0
156 1 21.9558 18.3472 0
157 1 23.6311 18.0568 0
158 1 13.3576 8.48248 0
159 1 11.0635 20.1657 0
160 1 24.9941 22.7628 0
161 1 17.6396 18.3356 0
162 1 9.70576 24.9416 0
163 1 24.3438 19.7292 0
164 1 17.1433 7.5449 0
165 1 7.27098 26.2558 0
166 1 3.52132 12.0852 0
167 1 21.2463 12.4929 0
168 1 28.1748 20.4385 0
169 1 4.21027 12.8991 0
170 1 28.8262 17.8044 0
171 1 2.81149 18.7401 0
172 1 11.1723 11.6104 0
173 1 9.97613 5.83214 0
174 1 8.50855 7.515 0
175 1 25.3389 5.51393 0
176 1 22.9966 4.98966 0
177 1 18.0136 19.9109 0
178 1 7.72578 18.8224 0
179 1 23.7869 22.5322 0
180 1 25.0058 16.3615 0
181 1 4.58349 24.1371 0
182 1 3.15564 1.00799 0
183 1 26.6397 7.33689 0
184 1 29.8496 23.2143 0
185 1 16.9291 11.9535 0
186 1 5.15675 28.8408 0
187 1 28.9762 16.0323 0
188 1 26.7798 27.7299 0
189 1 25.3655 25.8893 0
190 1 25.1607 23.789 0
191 1 8.9743 5.06483 0
192 1 6.75983 6.1179 0
193 1 24.3071 24.4518 0
194 1 21.3085 25.7784 0
ITEM: TIMESTEP
2205
ITEM: NUMBER OF ATOMS
194
ITEM: BOX BOUNDS pp pp pp
0.0000000000000000e+00 3.0000000000000000e+01
0.0000000000000000e+00 3.0000000000000000e+01
-5.0000000000000000e-01 5.0000000000000000e-01
ITEM: ATOMS id type x y z
1 1 25.1579 4.22991 0
2 1 18.9352 4.38102 0
3 1 11.1301 23.2671 0
4 1 10.3531 27.6176 0
5 1 3.64518 22.9165 0
6 1 11.6739 2.66354 0
7 1 3.99796 26.952 0
8 1 22.8792 22.0179 0
9 1 14.0965 22.5589 0
10 1 1.29182 10.9182 0
11 1 28.5335 5.89637 0
12 1 1.08097 14.0044 0
13 1 20.4736 23.3922 0
14 1 0.713497 27.4451 0
15 1 14.8435 28.9839 0
16 1 12.4047 17.5291 0
17 1 1.8042 26.6368 0
18 1 17.784 3.9073 0
19 1 23.7711 25.541 0
20 1 6.78454 23.5205 0
21 1 17.5401 28.9454 0
22 1 21.0561 3.83362 0
23 1 2.92727 27.2187 0
24 1 19.0885 6.79976 0
25 1 3.08107 5.4847 0
26 1 28.1236 4.92776 0
27 1 2.57473 13.224 0
28 1 20.5429 24.6204 0
29 1 9.8386 7.44932 0
30 1 22.4708 27.7415 0
31 1 11.3453 29.2895 0
32 1 1.09432 29.8841 0
33 1 8.11451 28.5395 0
34 1 6.07372 12.4651 0
35 1 18.0756 1.83908 0
36 1 5.783 18.3112 0
37 1 17.7475 12.8604 0
38 1 27.9847 29.739 0
39 1 24.414 10.5597 0
40 1 14.3598 5.50478 0
41 1 2.36146 7.78703 0
42 1 25.3013 13.1377 0
43 1 8.43567 20.7284 0
44 1 1.5362 16.6127 0
45 1 2.84129 28.4491 0
46 1 6.13536 3.63743 0
47 1 12.0925 18.4114 0
48 1 1.40892 28.1861 0
49 1 25.5972 7.68506 0
50 1 13.2029 22.7792 0
51 1 29.1209 11.5787 0
52 1 1.80493 8.99749 0
53 1 9.08508 18.8904 0
54 1 6.19265 19.3807 0
55 1 21.5495 8.84307 0
56 1 28.801 28.3993 0
57 1 17.3437 10.7669 0
58 1 29.297 10.5508 0
59 1 20.0502 2.57044 0
60 1 28.8816 23.0479 0
61 1 0.152841 8.07008 0
62 1 22.7705 9.53408 0
63 1 12.1839 26.6924 0
64 1 15.499 17.2216 0
65 1 26.5425 20.3885 0
66 1 9.47447 20.2555 0
67 1 2.45169 16.5004 0
68 1 9.24636 17.602 0
69 1 15.7301 23.13 0
70 1 12.4456 19.7337 0
71 1 26.9047 24.0579 0
72 1 22.3416 23.5457 0
73 1 4.6878 29.719 0
74 1 11.1197 8.29267 0
75 1 27.5275 21.1736 0
76 1 15.8822 23.9213 0
77 1 5.88633 24.6291 0
78 1 3.86274 21.0668 0
79 1 14.4502 14.1967 0
80 1 9.74191 0.487727 0
81 1 2.35272 3.26013 0
82 1 0.580397 0.609403 0
83 1 20.3466 15.8545 0
84 1 28.9313 26.4319 0
85 1 15.1996 7.63983 0
86 1 23.1531 20.4049 0
87 1 8.78777 22.165 0
88 1 23.5066 23.5894 0
89 1 24.566 21.7466 0
90 1 13.8762 27.9705 0
91 1 16.0999 5.74284 0
92 1 4.95372 18.1144 0
93 1 24.9467 8.51276 0
94 1 2.37166 15.5083 0
95 1 24.1891 1.16303 0
96 1 29.5593 28.7106 0
97 1 24.4941 29.8794 0
98 1 15.3625 2.56419 0
99 1 14.0967 18.9414 0
100 1 18.2326 22.6815 0
101 1 11.0129 25.0995 0
102 1 4.86949 11.7338 0
103 1 25.0921 19.0294 0
104 1 16.1892 4.38401 0
105 1 18.9733 23.8269 0
106 1 6.74023 21.5642 0
107 1 10.3576 29.5181 0
108 1 2.32963 10.708 0
109 1 18.9852 9.49803 0
110 1 18.6448 26.288 0
111 1 12.5181 4.46789 0
112 1 28.5261 13.4441 0
113 1 12.1279 8.63125 0
114 1 8.74053 9.36316 0
115 1 27.2749 3.45224 0
116 1 6.95051 5.36871 0
117 1 13.7641 6.93956 0
118 1 21.8058 21.1852 0
119 1 28.046 17.3668 0
120 1 19.643 25.847 0
121 1 23.6007 29.378 0
122 1 24.3972 12.7149 0
123 1 26.1331 9.81871 0
124 1 26.7745 4.85797 0
125 1 19.1898 19.9942 0
126 1 9.57478 16.5017 0
127 1 11.3105 3.89253 0
128 1 24.5016 26.9911 0
129 1 23.3957 13.2815 0
130 1 15.6693 15.6073 0
131 1 21.9846 2.37401 0
132 1 5.92776 21.924 0
133 1 1.79412 19.1986 0
134 1 10.8596 16.205 0
135 1 2.04103 28.9376 0
136 1 9.4206 28.0642 0
137 1 23.0448 7.3498 0
138 1 28.2026 12.7439 0
139 1 1.07073 7.14894 0
140 1 7.85977 29.3129 0
141 1 8.46734 16.959 0
142 1 6.34752 8.48456 0
143 1 21.8504 5.77192 0
144 1 0.157242 16.9511 0
145 1 13.8014 10.491 0
146 1 11.8641 12.8207 0
147 1 29.7054 2.42211 0
148 1 16.2714 21.9062 0
149 1 18.9947 28.956 0
150 1 13.0277 9.98001 0
151 1 9.12499 13.9084 0
152 1 7.5418 16.1884 0
153 1 3.47595 23.8408 0
154 1 19.3724 1.22304 0
155 1 16.2644 2.07645 0
156 1 21.8346 18.4598 0
157 1 23.602 18.106 0
158 1 13.1397 8.43776 0
159 1 10.7166 20.4503 0
160 1 24.8159 22.7326 0
161 1 17.7381 18.5975 0
162 1 9.85509 24.6003 0
163 1 24.4165 19.8346 0
164 1 17.1502 7.3834 0
165 1 7.7072 26.1591 0
166 1 3.13435 12.1239 0
167 1 21.3462 12.3788 0
168 1 28.0464 20.373 0
169 1 4.1423 13.506 0
170 1 28.974 18.2632 0
171 1 2.91591 18.8249 0
172 1 11.0243 11.5435 0
173 1 10.1209 5.94377 0
174 1 8.17027 7.54174 0
175 1 24.9736 5.79994 0
176 1 22.7785 4.80231 0
177 1 17.8514 19.7327 0
178 1 7.81693 18.6425 0
179 1 23.9394 22.721 0
180 1 25.0164 16.3394 0
181 1 4.47811 24.075 0
182 1 2.95753 1.03669 0
183 1 26.9013 7.11417 0
184 1 0.426123 23.046 0
185 1 17.2687 12.0561 0
186 1 5.12545 28.8957 0
187 1 28.8953 15.7963 0
188 1 26.836 27.7421 0
189 1 25.4859 26.1121 0
190 1 25.339 23.7969 0
191 1 8.41438 4.94505 0
192 1 6.52123 6.32207 0
193 1 24.1074 24.6204 0
194 1 21.4967 25.4768 0
ITEM: TIMESTEP
2220
ITEM: NUMBER OF ATOMS
194
ITEM: BOX BOUNDS pp pp pp
0.0000000000000000e+00 3.0000000000000000e+01
0.0000000000000000e+00 3.0000000000000000e+01
-5.0000000000000000e-01 5.0000000000000000e-01
ITEM: ATOMS id type x y z
1 1 25.1912 4.38998 0
2 1 18.9376 4.21121 0
3 1 10.8828 23.0484 0
4 1 10.0875 27.6424 0
5 1 3.99645 22.7214 0
6 1 11.6764 2.86707 0
7 1 4.38434 26.7649 0
8 1 22.9328 21.8385 0
9 1 14.592 22.097 0
10 1 0.848816 11.4318 0
11 1 28.3264 6.08922 0
12 1 0.907587 13.9097 0
13 1 20.5799 23.4471 0
14 1 0.599601 27.0476 0
15 1 14.6403 29.3026 0
16 1 12.2715 17.4612 0
17 1 1.4686 26.3287 0
18 1 17.4694 3.67838 0
19 1 23.7385 25.5399 0
20 1 6.71012 23.2212 0
21 1 17.7897 29.0435 0
22 1 21.2719 3.43788 0
23 1 2.66138 27.5062 0
24 1 18.6406 6.63817 0
25 1 3.28928 5.7272 0
26 1 28.4264 5.02975 0
27 1 2.62115 13.3681 0
28 1 20.7991 24.6434 0
29 1 10.1948 7.21996 0
30 1 22.3439 27.8399 0
31 1 11.5292 29.0021 0
32 1 0.989737 29.5246 0
33 1 7.80044 27.8082 0
34 1 6.00262 12.699 0
35 1 18.1625 1.62526 0
36 1 6.25303 18.5039 0
37 1 17.7178 12.9779 0
38 1 27.9856 29.8756 0
39 1 24.5664 10.3604 0
40 1 14.5038 5.52628 0
41 1 2.4502 7.83166 0
42 1 25.3558 12.9955 0
43 1 8.06058 20.5477 0
44 1 1.72313 16.6694 0
45 1 3.10778 28.6673 0
46 1 5.98582 2.98368 0
47 1 12.3675 18.5668 0
48 1 1.19393 28.3222 0
49 1 25.5122 7.69736 0
50 1 13.1755 23.1354 0
51 1 29.156 11.5813 0
52 1 1.66991 9.20756 0
53 1 8.84843 19.0598 0
54 1 6.31016 19.548 0
55 1 21.3137 8.69558 0
56 1 28.605 27.6339 0
57 1 17.418 10.2907 0
58 1 29.4182 10.3741 0
59 1 20.4023 2.24729 0
60 1 28.6344 22.6389 0
61 1 29.5488 8.34504 0
62 1 22.5174 9.87042 0
63 1 11.7407 26.6561 0
64 1 15.7039 17 0
65 1 26.5939 20.6826 0
66 1 9.18605 20.4313 0
67 1 3.01334 16.2958 0
68 1 9.3496 17.8381 0
69 1 16.0911 22.9415 0
70 1 12.6144 19.7652 0
71 1 26.8962 23.9813 0
72 1 22.3411 23.4064 0
73 1 4.65993 29.9525 0
74 1 10.9834 8.47111 0
75 1 27.4302 21.2731 0
76 1 15.9387 24.2934 0
77 1 5.70017 24.7388 0
78 1 3.606 20.8527 0
79 1 14.1075 14.3335 0
80 1 9.71852 0.341198 0
81 1 2.33187 3.41554 0
82 1 0.283262 0.923145 0
83 1 20.5545 16.2731 0
84 1 29.2645 26.4563 0
85 1 15.0549 7.81849 0
86 1 23.1802 20.1595 0
87 1 8.65295 22.2383 0
88 1 23.1582 23.7826 0
89 1 24.8753 21.6334 0
90 1 13.9978 28.108 0
91 1 16.2316 5.74539 0
92 1 5.08921 18.3895 0
93 1 25.1044 8.59169 0
94 1 2.20909 15.5883 0
95 1 24.1021 1.06275 0
96 1 29.6445 28.5468 0
97 1 24.3168 0.0890199 0
98 1 15.6992 2.5338 0
99 1 14.3945 19.1144 0
100 1 18.0725 22.705 0
101 1 10.9959 25.179 0
102 1 5.17491 11.4358 0
103 1 24.9689 18.7206 0
104 1 16.0265 4.50643 0
105 1 19.0978 23.4232 0
106 1 6.61236 20.9793 0
107 1 10.2416 29.6609 0
108 1 2.103 10.4673 0
109 1 19.1669 9.54147 0
110 1 19.1098 26.1034 0
111 1 12.4508 4.78109 0
112 1 28.6289 13.8188 0
113 1 11.8829 8.71977 0
114 1 9.09622 9.23594 0
115 1 27.1003 3.71812 0
116 1 6.78823 5.34301 0
117 1 13.486 7.54623 0
118 1 21.7146 21.4872 0
119 1 27.8209 17.3839 0
120 1 19.9323 25.7468 0
121 1 23.5513 29.4584 0
122 1 24.3728 12.6221 0
123 1 26.2003 9.86709 0
124 1 27.3048 4.67614 0
125 1 18.7984 20.4596 0
126 1 10.2716 16.499 0
127 1 11.2781 3.90837 0
128 1 24.5271 27.0724 0
129 1 23.3416 13.5879 0
130 1 16.2811 15.9429 0
131 1 22.2031 2.19178 0
132 1 5.76861 21.9985 0
133 1 1.76479 19.0091 0
134 1 11.13 16.2226 0
135 1 1.95953 28.8981 0
136 1 9.19298 28.2558 0
137 1 23.169 7.6177 0
138 1 27.4855 12.6786 0
139 1 1.34396 6.98933 0
140 1 7.71635 29.6687 0
141 1 8.88151 16.9167 0
142 1 5.94057 8.7357 0
143 1 21.7819 5.61671 0
144 1 0.404367 16.8049 0
145 1 14.3415 10.1651 0
146 1 12.0386 13.5446 0
147 1 29.4649 2.4191 0
148 1 15.8152 21.7002 0
149 1 19.4106 28.8457 0
150 1 12.6704 9.91367 0
151 1 9.54857 14.0019 0
152 1 7.21555 16.3655 0
153 1 3.50281 23.6213 0
154 1 19.4528 0.902399 0
155 1 16.3972 1.91598 0
156 1 21.7142 18.5722 0
157 1 23.5733 18.1563 0
158 1 13.0118 8.37898 0
159 1 10.3651 20.7334 0
160 1 24.9272 22.7308 0
161 1 17.8422 18.7801 0
162 1 10.0097 24.2605 0
163 1 24.4617 19.9613 0
164 1 17.1567 7.22137 0
165 1 8.14336 26.0625 0
166 1 2.74648 12.1667 0
167 1 21.4462 12.2647 0
168 1 27.973 20.2072 0
169 1 4.07209 14.1105 0
170 1 29.218 18.8049 0
171 1 3.01628 18.9111 0
172 1 10.8342 11.4314 0
173 1 10.2647 6.05746 0
174 1 7.83312 7.5688 0
175 1 24.6093 6.08413 0
176 1 22.5572 4.61805 0
177 1 17.6876 19.6349 0
178 1 7.9123 18.4627 0
179 1 23.8327 22.8026 0
180 1 25.0268 16.3176 0
181 1 4.40492 24.0207 0
182 1 2.75923 1.06509 0
183 1 27.1608 6.89194 0
184 1 1.02392 22.8721 0
185 1 17.4708 11.9309 0
186 1 5.21773 28.7328 0
187 1 28.8148 15.5619 0
188 1 26.8924 27.7542 0
189 1 25.6018 26.3375 0
190 1 25.5138 23.8042 0
191 1 7.85248 4.82658 0
192 1 6.2419 6.6143 0
193 1 23.973 24.5797 0
194 1 21.6821 25.1726 0
ITEM: TIMESTEP
2235
ITEM: NUMBER OF ATOMS
194
ITEM: BOX BOUNDS pp pp pp
0.0000000000000000e+00 3.0000000000000000e+01
0.0000000000000000e+00 3.0000000000000000e+01
-5.0000000000000000e-01 5.0000000000000000e-01
ITEM: ATOMS id type x y z
1 1 25.225 4.55084 0
2 1 18.938 4.04061 0
3 1 10.6339 22.8321 0
4 1 9.82953 27.6634 0
5 1 4.37368 22.466 0
6 1 11.6821 3.06395 0
7 1 4.7697 26.5786 0
8 1 22.9852 21.6615 0
9 1 14.7394 21.7648 0
10 1 0.40585 11.9438 0
11 1 28.1872 6.55656 0
12 1 0.735029 13.8148 0
13 1 20.6857 23.5073 0
14 1 0.478043 26.662 0
15 1 14.4351 29.6175 0
16 1 12.1411 17.3683 0
17 1 1.14292 26.0139 0
18 1 17.1553 3.45028 0
19 1 23.6486 25.7367 0
20 1 6.63383 22.9208 0
21 1 18.0409 29.1414 0
22 1 21.488 3.03896 0
23 1 2.39467 27.7996 0
24 1 18.1906 6.47732 0
25 1 3.49727 5.9699 0
26 1 28.7 4.85095 0
27 1 2.66864 13.5082 0
28 1 21.0035 24.6417 0
29 1 10.5545 7.01619 0
30 1 22.2174 27.9385 0
31 1 11.71 28.7158 0
32 1 0.885948 29.1851 0
33 1 7.49055 27.0735 0
34 1 5.92998 12.931 0
35 1 18.251 1.41045 0
36 1 6.76638 18.6884 0
37 1 17.751 13.2502 0
38 1 27.9867 30.0118 0
39 1 24.7199 10.1602 0
40 1 14.6492 5.54773 0
41 1 2.53498 7.87559 0
42 1 25.4297 12.8611 0
43 1 7.68519 20.3667 0
44 1 1.90652 16.7228 0
45 1 3.37682 28.8783 0
46 1 5.83632 2.33002 0
47 1 12.6397 18.75 0
48 1 0.860265 28.33 0
49 1 25.4522 7.65657 0
50 1 13.1482 23.4912 0
51 1 29.1931 11.5808 0
52 1 1.5343 9.41285 0
53 1 8.61423 19.2305 0
54 1 6.40078 19.639 0
55 1 21.0791 8.54898 0
56 1 28.3926 26.8568 0
57 1 17.4929 9.81602 0
58 1 29.5393 10.2011 0
59 1 20.7559 1.92528 0
60 1 28.391 22.2334 0
61 1 28.9452 8.62019 0
62 1 22.2636 10.2058 0
63 1 11.2964 26.6187 0
64 1 15.9095 16.7761 0
65 1 26.1818 20.6327 0
66 1 8.89993 20.6055 0
67 1 3.62362 16.1812 0
68 1 9.46808 18.103 0
69 1 16.4467 22.7095 0
70 1 12.7829 19.7927 0
71 1 26.884 23.9041 0
72 1 22.1868 23.1942 0
73 1 4.63174 0.185212 0
74 1 10.5529 8.56111 0
75 1 27.7921 21.7148 0
76 1 15.9993 24.7038 0
77 1 5.51193 24.8465 0
78 1 3.34932 20.6386 0
79 1 13.7644 14.4701 0
80 1 9.50904 0.43848 0
81 1 2.31106 3.57088 0
82 1 -0.014842 1.23809 0
83 1 20.7625 16.6918 0
84 1 29.5954 26.4843 0
85 1 14.9083 7.9967 0
86 1 23.2117 19.9143 0
87 1 8.51801 22.3102 0
88 1 22.9599 24.0452 0
89 1 25.1818 21.5134 0
90 1 14.1213 28.2492 0
91 1 16.362 5.74361 0
92 1 5.18372 18.6577 0
93 1 25.2378 8.72453 0
94 1 1.99658 15.5818 0
95 1 23.9817 1.10258 0
96 1 29.7515 28.3916 0
97 1 24.216 0.192183 0
98 1 15.8662 2.63536 0
99 1 14.6915 19.2874 0
100 1 17.9161 22.7314 0
101 1 10.9763 25.2567 0
102 1 5.48168 11.1398 0
103 1 24.8417 18.4141 0
104 1 15.8652 4.63338 0
105 1 19.221 23.0169 0
106 1 6.6518 20.3924 0
107 1 10.3135 29.557 0
108 1 1.87612 10.2314 0
109 1 19.3481 9.58505 0
110 1 19.3937 25.9972 0
111 1 12.3811 5.09232 0
112 1 28.77 14.2595 0
113 1 11.9123 8.90444 0
114 1 9.45246 9.10803 0
115 1 26.9001 3.92527 0
116 1 6.61796 5.32612 0
117 1 13.4353 7.82615 0
118 1 21.6288 21.7909 0
119 1 27.5965 17.4012 0
120 1 20.4059 25.5645 0
121 1 23.4584 29.5049 0
122 1 24.3265 12.5239 0
123 1 26.2654 9.91464 0
124 1 27.8524 4.5513 0
125 1 18.4033 20.9226 0
126 1 10.6958 16.5948 0
127 1 11.2449 3.93303 0
128 1 24.5561 27.1499 0
129 1 23.2904 13.8918 0
130 1 16.8922 16.2807 0
131 1 22.4197 2.01127 0
132 1 5.47212 22.1681 0
133 1 1.74054 18.819 0
134 1 11.6697 16.1458 0
135 1 1.9897 28.9627 0
136 1 8.95612 28.4523 0
137 1 23.2935 7.88565 0
138 1 26.7305 12.5483 0
139 1 1.62006 6.83244 0
140 1 7.57249 30.0273 0
141 1 9.27971 16.8479 0
142 1 5.53384 8.9865 0
143 1 21.7166 5.45727 0
144 1 0.655934 16.658 0
145 1 14.8809 9.83906 0
146 1 12.2133 14.2684 0
147 1 29.2251 2.41494 0
148 1 15.7088 21.3703 0
149 1 19.8248 28.736 0
150 1 12.3124 9.84244 0
151 1 9.9722 14.0954 0
152 1 6.89064 16.5435 0
153 1 3.45247 23.4425 0
154 1 19.5315 0.58398 0
155 1 16.7012 1.62436 0
156 1 21.5946 18.6847 0
157 1 23.5467 18.2084 0
158 1 12.6777 8.64214 0
159 1 10.0082 21.0154 0
160 1 25.1187 22.7394 0
161 1 17.9883 18.6497 0
162 1 10.1691 23.9211 0
163 1 24.5036 20.0864 0
164 1 17.1645 7.05764 0
165 1 8.57929 25.967 0
166 1 2.35761 12.2139 0
167 1 21.5464 12.1507 0
168 1 27.8995 20.04 0
169 1 4.00035 14.7143 0
170 1 29.4612 19.3464 0
171 1 3.1119 18.998 0
172 1 10.6443 11.3194 0
173 1 10.4063 6.14798 0
174 1 7.49549 7.59575 0
175 1 24.2455 6.36828 0
176 1 22.3319 4.43714 0
177 1 17.4852 19.8527 0
178 1 8.00737 18.2811 0
179 1 23.6451 22.8837 0
180 1 25.0372 16.2959 0
181 1 4.38652 23.9865 0
182 1 2.56087 1.09316 0
183 1 27.3884 6.67827 0
184 1 1.62158 22.6982 0
185 1 17.6099 11.6492 0
186 1 5.30946 28.5703 0
187 1 28.7343 15.3266 0
188 1 26.9494 27.7659 0
189 1 25.7136 26.5659 0
190 1 25.6881 23.8075 0
191 1 7.29718 4.70255 0
192 1 5.96458 6.90389 0
193 1 23.9022 24.3413 0
194 1 21.9163 24.8896 0
ITEM: TIMESTEP
2250
ITEM: NUMBER OF ATOMS
194
ITEM: BOX BOUNDS pp pp pp
0.0000000000000000e+00 3.0000000000000000e+01
0.0000000000000000e+00 3.0000000000000000e+01
-5.0000000000000000e-01 5.0000000000000000e-01
ITEM: ATOMS id type x y z
1 1 25.2595 4.71168 0
2 1 18.9377 3.86981 0
3 1 10.3842 22.6127 0
4 1 9.56981 27.6865 0
5 1 4.456 22.2439 0
6 1 11.7243 3.19224 0
7 1 5.15536 26.3919 0
8 1 23.0356 21.4881 0
9 1 14.3148 21.6467 0
10 1 -0.0402915 12.4548 0
11 1 28.5142 6.94925 0
12 1 0.562596 13.7193 0
13 1 20.7934 23.5698 0
14 1 0.627034 26.4783 0
15 1 14.229 29.9289 0
16 1 12.0085 17.2732 0
17 1 0.94612 25.5493 0
18 1 16.8399 3.22171 0
19 1 23.5592 25.9312 0
20 1 6.55436 22.6183 0
21 1 18.2931 29.2396 0
22 1 21.705 2.6347 0
23 1 2.12748 28.0939 0
24 1 17.7622 6.29755 0
25 1 3.70485 6.21298 0
26 1 29.1854 4.74959 0
27 1 2.71534 13.6449 0
28 1 21.1227 24.5554 0
29 1 10.9558 7.04217 0
30 1 22.0911 28.0375 0
31 1 11.8892 28.4299 0
32 1 0.793799 29.1553 0
33 1 7.18239 26.3379 0
34 1 5.85708 13.1622 0
35 1 18.3394 1.19459 0
36 1 7.332 18.8092 0
37 1 17.784 13.5205 0
38 1 27.9881 0.147888 0
39 1 24.8763 9.9573 0
40 1 14.7977 5.56775 0
41 1 2.61686 7.91714 0
42 1 25.3669 12.7867 0
43 1 7.58531 20.1257 0
44 1 2.08578 16.773 0
45 1 3.64095 29.0878 0
46 1 5.68675 1.67623 0
47 1 12.9082 18.9005 0
48 1 0.61277 28.0079 0
49 1 25.3955 7.60337 0
50 1 13.121 23.8468 0
51 1 29.2347 11.5781 0
52 1 1.26682 9.31905 0
53 1 8.38024 19.4035 0
54 1 6.21637 19.0732 0
55 1 20.8445 8.40288 0
56 1 28.1845 26.0791 0
57 1 17.5685 9.34201 0
58 1 29.6597 10.0308 0
59 1 21.1128 1.60656 0
60 1 28.8411 22.3899 0
61 1 28.342 8.89614 0
62 1 22.0096 10.5412 0
63 1 10.8506 26.5785 0
64 1 16.1143 16.5532 0
65 1 25.7741 20.5738 0
66 1 8.61198 20.7774 0
67 1 4.23497 16.0798 0
68 1 9.58178 18.3674 0
69 1 16.803 22.4755 0
70 1 12.9547 19.8497 0
71 1 26.8696 23.8262 0
72 1 22.0119 22.9677 0
73 1 4.60338 0.416382 0
74 1 10.3354 8.50751 0
75 1 27.4597 21.5921 0
76 1 16.06 25.1136 0
77 1 5.32071 24.9526 0
78 1 3.09255 20.4232 0
79 1 13.419 14.6068 0
80 1 9.28347 0.554643 0
81 1 2.29026 3.72615 0
82 1 29.6851 1.55571 0
83 1 20.9706 17.1107 0
84 1 29.5227 26.465 0
85 1 14.7588 8.17531 0
86 1 23.248 19.6693 0
87 1 8.38344 22.3807 0
88 1 22.8373 24.236 0
89 1 25.4828 21.4057 0
90 1 14.2455 28.394 0
91 1 16.4911 5.73906 0
92 1 5.28104 18.9272 0
93 1 25.3675 8.87298 0
94 1 1.7844 15.5793 0
95 1 23.8124 1.33749 0
96 1 29.7639 28.2531 0
97 1 24.1895 0.123134 0
98 1 16.0341 2.73777 0
99 1 14.9879 19.4606 0
100 1 17.7618 22.758 0
101 1 10.9562 25.3362 0
102 1 5.78868 10.8442 0
103 1 24.7096 18.1082 0
104 1 15.7047 4.76567 0
105 1 19.342 22.61 0
106 1 6.64723 20.583 0
107 1 10.4016 29.4318 0
108 1 1.78108 10.2945 0
109 1 19.5292 9.62849 0
110 1 19.6485 25.9035 0
111 1 12.31 5.40229 0
112 1 28.9654 14.4141 0
113 1 11.388 9.15339 0
114 1 9.59779 9.12201 0
115 1 26.6854 4.11005 0
116 1 6.34471 5.41402 0
117 1 13.5224 7.92186 0
118 1 21.5478 22.0969 0
119 1 27.3722 17.4185 0
120 1 20.8898 25.4163 0
121 1 23.3389 29.5288 0
122 1 24.2811 12.4268 0
123 1 26.3271 9.96085 0
124 1 28.2015 4.37372 0
125 1 18.0057 21.3837 0
126 1 11.0041 16.7366 0
127 1 11.1765 4.02783 0
128 1 24.5889 27.2241 0
129 1 23.24 14.1946 0
130 1 17.5039 16.6175 0
131 1 22.6331 1.8331 0
132 1 5.47167 22.3109 0
133 1 1.72013 18.6291 0
134 1 12.3249 16.0281 0
135 1 2.02189 29.0288 0
136 1 8.72191 28.6472 0
137 1 23.4187 8.15297 0
138 1 26.1106 12.3578 0
139 1 1.89904 6.67834 0
140 1 7.42925 0.385774 0
141 1 9.68103 16.7823 0
142 1 5.12727 9.23727 0
143 1 21.6537 5.29394 0
144 1 0.913775 16.5104 0
145 1 15.42 9.51206 0
146 1 12.3899 14.9933 0
147 1 28.9873 2.40786 0
148 1 16.176 20.8286 0
149 1 20.2382 28.627 0
150 1 12.0122 9.86848 0
151 1 10.396 14.1889 0
152 1 6.56603 16.7221 0
153 1 3.3925 23.2549 0
154 1 19.6086 0.266561 0
155 1 17.0077 1.33331 0
156 1 21.4756 18.7971 0
157 1 23.5243 18.2625 0
158 1 12.7025 8.92773 0
159 1 9.64686 21.2966 0
160 1 25.3099 22.7485 0
161 1 18.136 18.5116 0
162 1 10.3299 23.586 0
163 1 24.5427 20.2115 0
164 1 17.1488 6.91057 0
165 1 9.01429 25.8731 0
166 1 1.969 12.2651 0
167 1 21.6468 12.0363 0
168 1 27.8259 19.8746 0
169 1 3.92424 15.3041 0
170 1 29.7035 19.8882 0
171 1 3.20404 19.0861 0
172 1 10.4546 11.2071 0
173 1 10.5066 6.01099 0
174 1 7.15656 7.62219 0
175 1 23.882 6.65357 0
176 1 22.1036 4.25865 0
177 1 17.2835 20.0813 0
178 1 8.10124 18.1007 0
179 1 23.4547 22.968 0
180 1 25.0474 16.2746 0
181 1 4.38249 23.9578 0
182 1 2.36263 1.12087 0
183 1 27.15 6.53752 0
184 1 2.21986 22.5246 0
185 1 17.7492 11.3688 0
186 1 5.40017 28.4086 0
187 1 28.6 15.3776 0
188 1 27.0065 27.7763 0
189 1 25.8214 26.7973 0
190 1 25.8611 23.8065 0
191 1 6.84437 4.47511 0
192 1 5.68893 7.19298 0
193 1 23.8726 24.1146 0
194 1 22.1599 24.7083 0
ITEM: TIMESTEP
2265
ITEM: NUMBER OF ATOMS
194
ITEM: BOX BOUNDS pp pp pp
0.0000000000000000e+00 3.0000000000000000e+01
0.0000000000000000e+00 3.0000000000000000e+01
-5.0000000000000000e-01 5.0000000000000000e-01
ITEM: ATOMS id type x y z
1 1 25.296 4.87173 0
2 1 18.9372 3.69893 0
3 1 10.1321 22.3257 0
4 1 9.30781 27.7126 0
5 1 4.13065 22.0532 0
6 1 11.7973 3.27048 0
7 1 5.54171 26.2022 0
8 1 23.085 21.3172 0
9 1 13.891 21.5279 0
10 1 29.5136 12.9668 0
11 1 28.8698 7.34095 0
12 1 0.388005 13.6213 0
13 1 20.8684 23.5434 0
14 1 0.86977 26.4363 0
15 1 14.0228 0.238031 0
16 1 11.9809 17.2289 0
17 1 0.824962 24.961 0
18 1 16.8505 3.18301 0
19 1 23.4702 26.1251 0
20 1 6.63456 22.3271 0
21 1 18.547 29.3393 0
22 1 21.9242 2.22651 0
23 1 1.86312 28.2437 0
24 1 17.5203 5.92987 0
25 1 3.9118 6.45663 0
26 1 29.7484 4.67689 0
27 1 2.76098 13.7802 0
28 1 21.2677 24.3227 0
29 1 11.367 7.10886 0
30 1 21.9645 28.137 0
31 1 12.0675 28.1443 0
32 1 0.709765 29.1683 0
33 1 6.87424 25.6021 0
34 1 5.78416 13.3933 0
35 1 18.4251 0.977511 0
36 1 7.84292 18.8407 0
37 1 17.817 13.7904 0
38 1 27.9897 0.284175 0
39 1 25.0296 9.76447 0
40 1 14.9444 5.59138 0
41 1 2.69691 7.95591 0
42 1 24.7972 12.9967 0
43 1 7.54314 19.9788 0
44 1 2.25921 16.8179 0
45 1 3.90395 29.2979 0
46 1 5.53618 1.0211 0
47 1 13.1718 18.9518 0
48 1 0.659019 27.5695 0
49 1 25.338 7.55422 0
50 1 13.0939 24.2024 0
51 1 29.2785 11.576 0
52 1 0.949018 9.11877 0
53 1 8.43029 19.4902 0
54 1 6.15029 18.5209 0
55 1 20.6093 8.25744 0
56 1 27.9796 25.3025 0
57 1 17.6441 8.86837 0
58 1 29.7803 9.86126 0
59 1 21.4731 1.29022 0
60 1 29.3814 22.616 0
61 1 27.7394 9.17247 0
62 1 21.7549 10.8789 0
63 1 10.4038 26.5338 0
64 1 16.3226 16.3303 0
65 1 25.4353 20.3171 0
66 1 8.32147 20.9459 0
67 1 4.97929 16.2735 0
68 1 9.69158 18.6306 0
69 1 16.9864 22.1994 0
70 1 13.1319 20.0056 0
71 1 26.9169 23.7474 0
72 1 21.9807 22.9675 0
73 1 4.57536 0.647285 0
74 1 10.5417 8.15639 0
75 1 27.0362 21.3987 0
76 1 16.1208 25.5234 0
77 1 5.12671 25.0589 0
78 1 2.83617 20.2039 0
79 1 13.0999 14.7221 0
80 1 9.05866 0.668774 0
81 1 2.26946 3.88143 0
82 1 29.4099 1.8485 0
83 1 21.1789 17.5307 0
84 1 29.2774 26.4315 0
85 1 14.6063 8.3553 0
86 1 23.288 19.4227 0
87 1 8.25002 22.4486 0
88 1 23.0924 24.0725 0
89 1 25.7255 21.4996 0
90 1 14.3697 28.541 0
91 1 16.6176 5.7345 0
92 1 5.22323 19.2082 0
93 1 25.5052 9.00904 0
94 1 1.57664 15.5753 0
95 1 23.6624 1.56824 0
96 1 29.484 28.1835 0
97 1 24.182 0.0684822 0
98 1 15.8766 2.64944 0
99 1 15.2845 19.6347 0
100 1 17.7424 22.8507 0
101 1 10.9348 25.4203 0
102 1 6.09527 10.548 0
103 1 24.5726 17.8027 0
104 1 15.5507 4.89783 0
105 1 19.4615 22.2034 0
106 1 6.38466 20.8502 0
107 1 10.488 29.307 0
108 1 1.73545 10.4645 0
109 1 19.7103 9.67134 0
110 1 19.9078 25.8079 0
111 1 12.2375 5.71184 0
112 1 29.2335 14.2499 0
113 1 10.7114 9.28006 0
114 1 9.32341 9.43157 0
115 1 26.4711 4.29647 0
116 1 6.04061 5.54242 0
117 1 13.6102 8.02222 0
118 1 21.3256 22.1829 0
119 1 27.148 17.4356 0
120 1 21.3038 25.4743 0
121 1 23.1999 29.5389 0
122 1 24.2061 12.3076 0
123 1 26.3838 10.0046 0
124 1 28.4704 4.16676 0
125 1 17.6463 21.8176 0
126 1 11.2065 16.8224 0
127 1 11.0777 4.17387 0
128 1 24.6256 27.2956 0
129 1 23.1899 14.4971 0
130 1 18.1125 16.955 0
131 1 22.8219 1.66069 0
132 1 5.71695 22.4139 0
133 1 1.7019 18.4393 0
134 1 13.0467 16.3533 0
135 1 2.04393 29.2404 0
136 1 8.49162 28.8392 0
137 1 23.5452 8.41855 0
138 1 26.0267 11.9053 0
139 1 2.18035 6.52694 0
140 1 7.28658 0.744232 0
141 1 10.0868 16.7188 0
142 1 4.72121 9.48864 0
143 1 21.5911 5.13021 0
144 1 1.17359 16.3699 0
145 1 15.9582 9.18293 0
146 1 12.4696 15.3027 0
147 1 28.7243 2.42583 0
148 1 16.3813 20.384 0
149 1 20.6516 28.5188 0
150 1 11.81 10.0308 0
151 1 10.82 14.2826 0
152 1 6.24147 16.9011 0
153 1 3.34015 23.0706 0
154 1 19.6835 -0.0512534 0
155 1 17.3176 1.04345 0
156 1 21.3569 18.9084 0
157 1 23.5059 18.3195 0
158 1 12.7817 9.19568 0
159 1 9.28266 21.5795 0
160 1 25.5032 22.7576 0
161 1 18.283 18.3739 0
162 1 10.4914 23.3166 0
163 1 24.568 20.3364 0
164 1 16.9446 6.94727 0
165 1 9.45001 25.7801 0
166 1 1.58062 12.3181 0
167 1 21.7476 11.9195 0
168 1 27.7524 19.7102 0
169 1 3.71448 15.5987 0
170 1 29.9454 20.4301 0
171 1 3.29394 19.1775 0
172 1 10.2651 11.0943 0
173 1 10.5972 5.83481 0
174 1 6.8153 7.64788 0
175 1 23.5187 6.9411 0
176 1 21.8746 4.07924 0
177 1 17.3448 20.215 0
178 1 8.21206 17.906 0
179 1 23.2601 23.056 0
180 1 25.0575 16.254 0
181 1 4.37811 23.928 0
182 1 2.16452 1.14813 0
183 1 26.8828 6.39792 0
184 1 2.81682 22.3478 0
185 1 17.8885 11.0883 0
186 1 5.49018 28.2471 0
187 1 28.3943 15.7464 0
188 1 27.062 27.7849 0
189 1 25.9264 27.0318 0
190 1 25.9695 23.8017 0
191 1 6.42223 4.20788 0
192 1 5.41549 7.48229 0
193 1 23.9844 23.8631 0
194 1 21.9609 24.9245 0
ITEM: TIMESTEP
2280
ITEM: NUMBER OF ATOMS
194
ITEM: BOX BOUNDS pp pp pp
0.0000000000000000e+00 3.0000000000000000e+01
0.0000000000000000e+00 3.0000000000000000e+01
-5.0000000000000000e-01 5.0000000000000000e-01
ITEM: ATOMS id type x y z
1 1 25.3365 5.03013 0
2 1 18.9364 3.52799 0
3 1 9.88457 22.0123 0
4 1 9.04494 27.7404 0
5 1 3.97656 21.8275 0
6 1 11.8707 3.34799 0
7 1 5.9288 26.0067 0
8 1 23.1348 21.1467 0
9 1 13.4667 21.4075 0
10 1 29.0448 13.4106 0
11 1 29.2249 7.7328 0
12 1 0.218124 13.5229 0
13 1 20.8181 23.2445 0
14 1 1.11949 26.3698 0
15 1 13.8169 0.546053 0
16 1 12.2883 17.357 0
17 1 0.703673 24.3749 0
18 1 17.0409 3.2477 0
19 1 23.3816 26.319 0
20 1 7.05459 22.04 0
21 1 18.8018 29.4419 0
22 1 22.0309 1.92379 0
23 1 1.58783 28.3044 0
24 1 17.5478 5.56482 0
25 1 4.11823 6.70118 0
26 1 0.308169 4.6028 0
27 1 2.80609 13.9154 0
28 1 21.4047 24.2367 0
29 1 11.7749 7.17496 0
30 1 21.8526 28.2337 0
31 1 12.2455 27.8588 0
32 1 0.63079 29.1764 0
33 1 6.5629 24.8676 0
34 1 5.71124 13.6243 0
35 1 18.5305 0.757377 0
36 1 8.08098 18.6523 0
37 1 17.85 14.0604 0
38 1 27.9914 0.420831 0
39 1 25.0617 9.76043 0
40 1 14.9761 5.7584 0
41 1 2.77624 7.99222 0
42 1 24.3366 13.3193 0
43 1 7.23767 20.0361 0
44 1 2.42736 16.8588 0
45 1 4.16777 29.51 0
46 1 5.44693 0.3686 0
47 1 13.4354 18.9739 0
48 1 0.703197 27.1567 0
49 1 25.2804 7.5081 0
50 1 13.0667 24.558 0
51 1 29.3236 11.5764 0
52 1 0.629749 8.92226 0
53 1 8.99758 19.6447 0
54 1 6.1557 17.9579 0
55 1 20.3735 8.11308 0
56 1 27.775 24.5257 0
57 1 17.7185 8.39494 0
58 1 29.9035 9.6906 0
59 1 21.8248 0.946067 0
60 1 29.9216 22.8419 0
61 1 27.136 9.449 0
62 1 21.4721 11.078 0
63 1 9.98266 26.5376 0
64 1 16.5316 16.1077 0
65 1 25.3802 20.0066 0
66 1 8.02936 21.1119 0
67 1 5.65322 16.383 0
68 1 9.79735 18.8941 0
69 1 16.3629 22.2444 0
70 1 13.3098 20.1918 0
71 1 27.0733 23.6636 0
72 1 22.0784 23.1623 0
73 1 4.48552 0.873004 0
74 1 10.7488 7.80219 0
75 1 26.6402 21.1918 0
76 1 16.1815 25.9332 0
77 1 4.93286 25.1664 0
78 1 2.57851 19.9854 0
79 1 13.0058 14.6302 0
80 1 8.83315 0.782057 0
81 1 2.24862 4.03673 0
82 1 29.2824 2.01562 0
83 1 21.3877 17.9542 0
84 1 29.0341 26.3984 0
85 1 14.4894 8.55094 0
86 1 23.3235 19.2084 0
87 1 8.11783 22.5113 0
88 1 23.0891 24.0153 0
89 1 25.9338 21.6449 0
90 1 14.4936 28.6891 0
91 1 16.4921 5.70373 0
92 1 5.09667 19.5037 0
93 1 25.7704 8.95689 0
94 1 1.46515 15.3543 0
95 1 23.8562 1.76737 0
96 1 29.2015 28.1152 0
97 1 24.1758 0.0175142 0
98 1 15.5397 2.45772 0
99 1 15.4506 19.7157 0
100 1 17.8544 23.0354 0
101 1 10.9088 25.5093 0
102 1 6.40113 10.2511 0
103 1 24.4317 17.498 0
104 1 15.5171 4.88941 0
105 1 19.5807 21.7971 0
106 1 6.12541 21.1186 0
107 1 10.5738 29.1819 0
108 1 1.68822 10.6331 0
109 1 19.8919 9.71319 0
110 1 20.1713 25.7111 0
111 1 12.1624 6.02256 0
112 1 29.519 14.1514 0
113 1 10.0345 9.40839 0
114 1 9.05332 9.74044 0
115 1 26.2536 4.48499 0
116 1 5.73732 5.66807 0
117 1 13.6615 8.11088 0
118 1 20.9721 22.0839 0
119 1 26.9239 17.4526 0
120 1 21.3978 25.8247 0
121 1 23.0583 29.5477 0
122 1 24.0212 12.0764 0
123 1 26.4342 10.0445 0
124 1 28.7422 3.95994 0
125 1 17.963 21.8354 0
126 1 11.2312 16.7496 0
127 1 10.9787 4.32235 0
128 1 24.666 27.3651 0
129 1 23.14 14.7992 0
130 1 18.7207 17.2941 0
131 1 22.7887 1.43996 0
132 1 5.62229 22.5089 0
133 1 1.68509 18.2487 0
134 1 13.8246 16.9767 0
135 1 2.06733 29.5412 0
136 1 8.26403 29.0288 0
137 1 23.6726 8.68163 0
138 1 25.9436 11.4516 0
139 1 2.46355 6.37777 0
140 1 7.1441 1.10258 0
141 1 10.3392 16.639 0
142 1 4.31593 9.74036 0
143 1 21.5271 4.97182 0
144 1 1.34302 16.4509 0
145 1 16.4963 8.85229 0
146 1 12.2637 15.5245 0
147 1 28.3133 2.57034 0
148 1 16.1446 20.2264 0
149 1 21.05 28.4149 0
150 1 11.6097 10.1898 0
151 1 11.2448 14.3767 0
152 1 6.00404 17.1881 0
153 1 3.41626 23.0976 0
154 1 19.7567 29.6301 0
155 1 17.6092 0.754163 0
156 1 21.2384 19.0164 0
157 1 23.4977 18.3438 0
158 1 12.8589 9.46399 0
159 1 8.90273 21.8591 0
160 1 25.6985 22.7636 0
161 1 18.4294 18.2346 0
162 1 10.658 23.0775 0
163 1 24.3131 20.4813 0
164 1 16.7179 7.00478 0
165 1 9.86363 25.6352 0
166 1 1.19171 12.3717 0
167 1 21.8766 11.9414 0
168 1 27.6786 19.5464 0
169 1 3.48637 15.8669 0
170 1 0.186971 20.9721 0
171 1 3.38469 19.2679 0
172 1 10.076 10.9799 0
173 1 10.691 5.66002 0
174 1 6.4704 7.67301 0
175 1 23.156 7.2315 0
176 1 21.6469 3.89378 0
177 1 17.9792 20.1576 0
178 1 8.34441 17.6671 0
179 1 23.0661 23.0832 0
180 1 25.0672 16.2351 0
181 1 4.37249 23.8977 0
182 1 1.96643 1.17467 0
183 1 26.6154 6.25832 0
184 1 3.11988 21.9983 0
185 1 18.0279 10.8075 0
186 1 5.57971 28.0855 0
187 1 28.1892 16.114 0
188 1 27.1139 27.7912 0
189 1 26.0303 27.2695 0
190 1 25.9676 23.8008 0
191 1 5.99908 3.94398 0
192 1 5.14495 7.77136 0
193 1 24.352 23.5617 0
194 1 22.2167 24.9681 0
ITEM: TIMESTEP
2295
ITEM: NUMBER OF ATOMS
194
ITEM: BOX BOUNDS pp pp pp
0.0000000000000000e+00 3.0000000000000000e+01
0.0000000000000000e+00 3.0000000000000000e+01
-5.0000000000000000e-01 5.0000000000000000e-01
ITEM: ATOMS id type x y z
1 1 25.3453 5.21143 0
2 1 18.935 3.35704 0
3 1 9.67785 21.7113 0
4 1 8.78256 27.7685 0
5 1 4.44326 21.4677 0
6 1 11.9409 3.42893 0
7 1 6.31484 25.8048 0
8 1 23.1822 20.9772 0
9 1 13.041 21.2874 0
10 1 28.4654 13.5977 0
11 1 29.5808 8.12569 0
12 1 0.126074 13.3361 0
13 1 20.7643 22.9315 0
14 1 1.46334 26.127 0
15 1 13.6111 0.85366 0
16 1 12.5996 17.4849 0
17 1 0.586091 23.8051 0
18 1 17.2302 3.31189 0
19 1 23.2932 26.5131 0
20 1 7.36511 21.8734 0
21 1 18.9546 29.5416 0
22 1 21.8622 1.84223 0
23 1 1.30813 28.3683 0
24 1 17.704 5.20654 0
25 1 4.32542 6.9478 0
26 1 0.867163 4.52803 0
27 1 2.85082 14.0512 0
28 1 21.5384 24.1543 0
29 1 12.1788 7.25034 0
30 1 22.2152 28.2281 0
31 1 12.4234 27.5736 0
32 1 0.557278 29.181 0
33 1 6.24794 24.1369 0
34 1 5.63832 13.8554 0
35 1 18.7885 0.534503 0
36 1 8.30664 18.4969 0
37 1 17.8829 14.3304 0
38 1 27.9935 0.557978 0
39 1 25.0567 9.81235 0
40 1 14.9556 6.00112 0
41 1 2.85581 8.02674 0
42 1 23.88 13.6473 0
43 1 6.9353 20.0966 0
44 1 2.59288 16.8975 0
45 1 4.43312 29.7264 0
46 1 5.40514 -0.28901 0
47 1 13.6989 18.9993 0
48 1 0.653218 26.9232 0
49 1 25.2234 7.46395 0
50 1 13.0393 24.9137 0
51 1 29.3692 11.5777 0
52 1 0.33601 8.6854 0
53 1 9.51606 19.8681 0
54 1 6.40852 18.4946 0
55 1 20.1373 7.96997 0
56 1 27.816 23.9963 0
57 1 17.7909 7.92066 0
58 1 30.0009 9.56025 0
59 1 22.1534 0.553112 0
60 1 0.458263 23.0514 0
61 1 26.8378 9.41759 0
62 1 21.1296 11.0762 0
63 1 9.61868 26.7212 0
64 1 16.7407 15.8849 0
65 1 25.3813 19.6885 0
66 1 7.838 21.1475 0
67 1 6.01961 15.9449 0
68 1 9.95096 19.0919 0
69 1 15.7205 22.2999 0
70 1 13.4898 20.3736 0
71 1 26.9933 23.3306 0
72 1 22.0838 23.379 0
73 1 4.34729 1.09936 0
74 1 10.9599 7.44653 0
75 1 26.5261 20.8075 0
76 1 16.2423 26.343 0
77 1 4.74188 25.2733 0
78 1 2.31694 19.7712 0
79 1 12.9388 14.5098 0
80 1 8.60643 0.894782 0
81 1 2.22724 4.19231 0
82 1 29.1774 2.16631 0
83 1 21.6078 18.3473 0
84 1 28.7919 26.3666 0
85 1 14.4759 8.8009 0
86 1 23.3137 19.2247 0
87 1 7.89347 22.6618 0
88 1 23.0775 24.0913 0
89 1 25.8604 21.931 0
90 1 14.6172 28.8376 0
91 1 16.2316 5.6694 0
92 1 4.97028 19.7987 0
93 1 26.079 8.85171 0
94 1 1.37692 15.0639 0
95 1 24.1015 1.96576 0
96 1 28.9205 28.0456 0
97 1 24.1646 29.9661 0
98 1 15.2043 2.26686 0
99 1 15.1101 19.4308 0
100 1 17.9659 23.2166 0
101 1 10.9928 25.6124 0
102 1 6.70674 9.95409 0
103 1 24.2885 17.1939 0
104 1 15.5425 4.8082 0
105 1 19.7014 21.3922 0
106 1 5.8697 21.3911 0
107 1 10.6594 29.0564 0
108 1 1.64018 10.8018 0
109 1 20.0739 9.75415 0
110 1 20.4397 25.6142 0
111 1 12.0841 6.32552 0
112 1 29.8394 14.3952 0
113 1 9.43198 9.49892 0
114 1 8.71173 10.0894 0
115 1 26.0688 4.65235 0
116 1 5.43379 5.79337 0
117 1 13.6079 8.14719 0
118 1 20.6166 21.9817 0
119 1 26.7002 17.4691 0
120 1 21.4111 26.2436 0
121 1 22.9196 29.559 0
122 1 23.8321 11.84 0
123 1 26.1853 10.3594 0
124 1 29.0144 3.75063 0
125 1 18.3011 21.8441 0
126 1 11.6365 16.7183 0
127 1 10.8823 4.47079 0
128 1 24.7095 27.4334 0
129 1 23.0905 15.101 0
130 1 19.3724 17.5544 0
131 1 23.0037 1.04508 0
132 1 5.52773 22.6009 0
133 1 1.66968 18.0562 0
134 1 14.5999 17.6004 0
135 1 2.08692 29.84 0
136 1 8.03811 29.2171 0
137 1 23.8008 8.94307 0
138 1 25.8461 11.0251 0
139 1 2.74825 6.23018 0
140 1 7.00217 1.46039 0
141 1 10.2102 16.5151 0
142 1 3.91095 9.99184 0
143 1 21.4624 4.81967 0
144 1 1.49348 16.6035 0
145 1 17.0353 8.5209 0
146 1 12.0273 15.7759 0
147 1 27.8804 2.73382 0
148 1 16.4151 20.4349 0
149 1 20.9737 28.4147 0
150 1 11.4102 10.3471 0
151 1 11.672 14.4729 0
152 1 5.82648 16.9241 0
153 1 3.52671 23.1928 0
154 1 19.9305 29.3185 0
155 1 17.7507 0.462734 0
156 1 21.1095 19.1548 0
157 1 23.5393 18.1358 0
158 1 12.9349 9.73196 0
159 1 8.57879 22.0434 0
160 1 25.8894 22.7954 0
161 1 18.5322 18.1746 0
162 1 10.8222 22.8352 0
163 1 24.0046 20.6339 0
164 1 16.4917 7.05739 0
165 1 10.1085 25.2986 0
166 1 0.800836 12.4269 0
167 1 22.0653 12.1638 0
168 1 27.6043 19.3829 0
169 1 3.25602 16.1367 0
170 1 0.428506 21.5148 0
171 1 3.47998 19.354 0
172 1 9.88646 10.8617 0
173 1 10.7881 5.48361 0
174 1 6.12073 7.69828 0
175 1 22.7942 7.52401 0
176 1 21.42 3.70165 0
177 1 18.6126 20.1012 0
178 1 8.48695 17.3952 0
179 1 22.9631 22.9598 0
180 1 25.0752 16.2194 0
181 1 4.36546 23.8672 0
182 1 1.76841 1.19947 0
183 1 26.3464 6.11755 0
184 1 2.77273 21.7178 0
185 1 18.1675 10.5265 0
186 1 5.66899 27.9242 0
187 1 27.9836 16.4821 0
188 1 27.1628 27.7958 0
189 1 26.1334 27.5092 0
190 1 25.9555 23.8106 0
191 1 5.57571 3.68125 0
192 1 4.87696 8.0579 0
193 1 24.721 23.2583 0
194 1 22.5664 24.9525 0
ITEM: TIMESTEP
2310
ITEM: NUMBER OF ATOMS
194
ITEM: BOX BOUNDS pp pp pp
0.0000000000000000e+00 3.0000000000000000e+01
0.0000000000000000e+00 3.0000000000000000e+01
-5.0000000000000000e-01 5.0000000000000000e-01
ITEM: ATOMS id type x y z
1 1 25.2294 5.49103 0
2 1 18.9323 3.18626 0
3 1 9.47251 21.4112 0
4 1 8.52232 27.7946 0
5 1 4.90664 21.1049 0
6 1 12.009 3.51199 0
7 1 6.69947 25.6007 0
8 1 22.9252 20.9198 0
9 1 12.6066 21.1861 0
10 1 27.8868 13.7824 0
11 1 29.3903 8.18096 0
12 1 0.0186869 13.1705 0
13 1 20.7342 22.7071 0
14 1 1.82451 25.859 0
15 1 13.4057 1.16129 0
16 1 12.9074 17.6093 0
17 1 0.580606 24.0425 0
18 1 17.4206 3.37667 0
19 1 23.2045 26.7071 0
20 1 7.24017 22.1082 0
21 1 19.0318 29.5092 0
22 1 21.6935 1.75984 0
23 1 1.03572 28.4222 0
24 1 17.8575 4.84837 0
25 1 4.53499 7.1975 0
26 1 1.41145 4.45529 0
27 1 2.89486 14.1876 0
28 1 21.5413 24.2624 0
29 1 12.597 7.44205 0
30 1 22.6481 28.2105 0
31 1 12.6011 27.2883 0
32 1 0.477308 29.1953 0
33 1 5.93227 23.4081 0
34 1 5.56552 14.0868 0
35 1 19.0903 0.452209 0
36 1 8.53232 18.3461 0
37 1 17.9154 14.6009 0
38 1 27.9958 0.695681 0
39 1 25.0585 9.86423 0
40 1 14.9416 6.23993 0
41 1 2.93642 8.06016 0
42 1 23.4226 13.9754 0
43 1 6.63431 20.1598 0
44 1 2.64536 17.0866 0
45 1 4.63553 29.9599 0
46 1 5.42529 29.0402 0
47 1 13.9549 19.026 0
48 1 0.58588 26.717 0
49 1 25.1675 7.42064 0
50 1 13.0117 25.2695 0
51 1 29.4165 11.5802 0
52 1 0.643815 8.6705 0
53 1 9.89659 20.3064 0
54 1 6.69295 19.1614 0
55 1 19.9009 7.82772 0
56 1 28.1436 23.7463 0
57 1 17.9413 7.36324 0
58 1 0.043421 9.54611 0
59 1 22.3801 0.197912 0
60 1 0.937755 22.6725 0
61 1 26.8535 9.39253 0
62 1 20.7874 11.0742 0
63 1 9.25349 26.9083 0
64 1 16.9503 15.6616 0
65 1 25.382 19.3726 0
66 1 8.01878 20.6782 0
67 1 6.38132 15.3737 0
68 1 10.2403 19.075 0
69 1 15.0783 22.3551 0
70 1 13.6797 20.5325 0
71 1 26.8224 22.7246 0
72 1 22.1259 23.4435 0
73 1 4.21036 1.32063 0
74 1 11.1771 7.08837 0
75 1 26.4288 20.4071 0
76 1 16.303 26.7529 0
77 1 4.5521 25.3773 0
78 1 2.05883 19.5555 0
79 1 12.8941 14.3874 0
80 1 8.37829 1.00702 0
81 1 2.22027 4.346 0
82 1 29.0688 2.32022 0
83 1 21.8737 18.6588 0
84 1 28.55 26.3365 0
85 1 14.4797 9.06259 0
86 1 23.2968 19.2804 0
87 1 7.56432 23.0634 0
88 1 23.0986 24.092 0
89 1 25.7601 21.9549 0
90 1 14.7406 28.9863 0
91 1 15.9732 5.64531 0
92 1 4.8427 20.0949 0
93 1 26.2092 8.59424 0
94 1 1.288 14.7751 0
95 1 24.3439 2.16169 0
96 1 28.6391 27.9747 0
97 1 24.1467 29.9151 0
98 1 14.8688 2.07591 0
99 1 14.7753 19.1455 0
100 1 18.078 23.3942 0
101 1 11.2693 25.756 0
102 1 7.01288 9.65708 0
103 1 24.1453 16.8898 0
104 1 15.5633 4.72402 0
105 1 19.8039 20.9706 0
106 1 5.62095 21.67 0
107 1 10.745 28.9307 0
108 1 1.59147 10.9709 0
109 1 20.2565 9.7955 0
110 1 20.7121 25.5187 0
111 1 11.9847 6.51375 0
112 1 0.138325 14.6793 0
113 1 8.96243 9.50207 0
114 1 8.24077 10.5305 0
115 1 26.0106 4.72588 0
116 1 5.12915 5.92023 0
117 1 13.5345 8.17221 0
118 1 20.2575 21.8115 0
119 1 26.4775 17.4846 0
120 1 21.4229 26.6595 0
121 1 22.831 29.504 0
122 1 23.6426 11.6047 0
123 1 26.2045 10.0133 0
124 1 29.2856 3.53775 0
125 1 18.6413 21.8546 0
126 1 12.0245 16.8488 0
127 1 10.7886 4.50022 0
128 1 24.7555 27.5012 0
129 1 23.042 15.4016 0
130 1 20.0638 17.7637 0
131 1 23.2786 0.679556 0
132 1 5.43227 22.6885 0
133 1 1.65627 17.8592 0
134 1 15.3741 18.2265 0
135 1 2.10368 0.140562 0
136 1 7.81321 29.4049 0
137 1 23.9308 9.20474 0
138 1 25.3349 11.4029 0
139 1 3.03389 6.08355 0
140 1 6.86125 1.81767 0
141 1 10.0809 16.3913 0
142 1 3.50591 10.243 0
143 1 21.3976 4.6682 0
144 1 1.64599 16.7568 0
145 1 17.4943 8.27013 0
146 1 11.8129 15.8637 0
147 1 27.4522 2.89728 0
148 1 16.6867 20.6446 0
149 1 20.8313 28.4258 0
150 1 11.2102 10.5041 0
151 1 12.0765 14.5774 0
152 1 5.62255 16.6645 0
153 1 3.62127 23.2734 0
154 1 20.1839 29.0046 0
155 1 17.8416 0.167698 0
156 1 20.9358 19.375 0
157 1 23.5911 17.887 0
158 1 13.0106 9.99907 0
159 1 8.41704 22.0752 0
160 1 25.8971 23.0086 0
161 1 18.5954 18.1662 0
162 1 10.985 22.5915 0
163 1 24.0014 20.6713 0
164 1 16.2666 7.10839 0
165 1 10.1596 24.9215 0
166 1 0.446673 12.4214 0
167 1 22.2538 12.3852 0
168 1 27.5292 19.2199 0
169 1 3.13462 16.2578 0
170 1 0.615346 21.8387 0
171 1 3.57358 19.442 0
172 1 9.69471 10.7382 0
173 1 10.8868 5.42605 0
174 1 5.76546 7.72443 0
175 1 22.4332 7.81742 0
176 1 21.1934 3.50829 0
177 1 19.2469 20.0466 0
178 1 8.63087 17.12 0
179 1 22.9584 22.791 0
180 1 25.0802 16.2078 0
181 1 4.37646 23.8512 0
182 1 1.57129 1.2205 0
183 1 26.0749 5.97328 0
184 1 2.42567 21.4386 0
185 1 18.3073 10.2451 0
186 1 5.758 27.7639 0
187 1 27.7767 16.8511 0
188 1 27.2269 27.803 0
189 1 26.2189 27.746 0
190 1 25.9437 23.9089 0
191 1 5.15233 3.41883 0
192 1 4.61125 8.33895 0
193 1 25.0844 22.9548 0
194 1 22.874 25.0177 0
ITEM: TIMESTEP
2325
ITEM: NUMBER OF ATOMS
194
ITEM: BOX BOUNDS pp pp pp
0.0000000000000000e+00 3.0000000000000000e+01
0.0000000000000000e+00 3.0000000000000000e+01
-5.0000000000000000e-01 5.0000000000000000e-01
ITEM: ATOMS id type x y z
1 1 24.9603 5.73389 0
2 1 18.9271 3.01625 0
3 1 9.25703 21.1163 0
4 1 8.25927 27.8245 0
5 1 5.37566 20.917 0
6 1 12.0755 3.59648 0
7 1 7.0837 25.3964 0
8 1 22.5527 20.9 0
9 1 12.1733 21.0853 0
10 1 27.3087 13.9671 0
11 1 28.9838 8.10935 0
12 1 29.7485 13.2812 0
13 1 20.7262 22.5339 0
14 1 2.18334 25.5924 0
15 1 13.2014 1.4695 0
16 1 13.216 17.7344 0
17 1 0.580261 24.3392 0
18 1 17.614 3.44364 0
19 1 23.115 26.9024 0
20 1 7.08646 22.277 0
21 1 19.1106 29.2813 0
22 1 21.5259 1.6763 0
23 1 0.81967 28.3944 0
24 1 18.0098 4.48757 0
25 1 4.71135 7.43197 0
26 1 1.44118 4.44449 0
27 1 2.9379 14.3248 0
28 1 21.4456 24.5146 0
29 1 12.9682 7.60816 0
30 1 23.0813 28.1841 0
31 1 12.7786 27.0023 0
32 1 0.341287 29.2911 0
33 1 6.00284 23.1486 0
34 1 5.49429 14.3202 0
35 1 19.3872 0.564255 0
36 1 8.75869 18.1911 0
37 1 17.9467 14.873 0
38 1 27.9983 0.83396 0
39 1 25.0601 9.91549 0
40 1 14.9339 6.47627 0
41 1 3.01896 8.09323 0
42 1 22.9642 14.3058 0
43 1 6.26991 20.4029 0
44 1 2.59014 17.475 0
45 1 4.81729 0.203312 0
46 1 5.4617 28.3697 0
47 1 13.6811 18.9946 0
48 1 0.520589 26.5102 0
49 1 25.1136 7.37762 0
50 1 12.9831 25.626 0
51 1 29.4661 11.5849 0
52 1 1.17819 8.7626 0
53 1 10.2783 20.7473 0
54 1 7.04184 19.6512 0
55 1 19.6641 7.6858 0
56 1 28.4696 23.4952 0
57 1 18.1412 6.73704 0
58 1 0.0756507 9.55233 0
59 1 22.3014 0.236483 0
60 1 1.64812 23.0915 0
61 1 27.1282 9.35571 0
62 1 20.4444 11.0691 0
63 1 8.89104 27.0921 0
64 1 17.1611 15.4368 0
65 1 25.3844 19.0589 0
66 1 8.19995 20.2106 0
67 1 6.74037 14.8025 0
68 1 10.532 19.0527 0
69 1 14.4362 22.4101 0
70 1 13.8691 20.6881 0
71 1 27.0208 22.1033 0
72 1 22.2556 23.3786 0
73 1 4.07444 1.5387 0
74 1 11.1393 6.87126 0
75 1 26.3299 20.0049 0
76 1 16.3638 27.1627 0
77 1 4.36235 25.479 0
78 1 1.80317 19.3391 0
79 1 13.2007 14.1792 0
80 1 8.14878 1.11862 0
81 1 2.72804 4.43834 0
82 1 28.9587 2.47658 0
83 1 22.1452 18.9657 0
84 1 28.3083 26.3082 0
85 1 14.4794 9.32178 0
86 1 23.2792 19.3349 0
87 1 7.26257 23.5318 0
88 1 23.155 23.9646 0
89 1 25.6588 21.9384 0
90 1 14.8641 29.135 0
91 1 15.7262 5.65963 0
92 1 4.61731 20.1275 0
93 1 26.2226 8.22551 0
94 1 1.22219 14.4793 0
95 1 24.5856 2.35672 0
96 1 28.3548 27.902 0
97 1 24.1759 29.8177 0
98 1 14.5323 1.88435 0
99 1 14.9659 18.9214 0
100 1 18.1907 23.5703 0
101 1 11.5465 25.8988 0
102 1 7.32145 9.36126 0
103 1 24.0032 16.5846 0
104 1 15.5693 4.60761 0
105 1 19.9607 20.7295 0
106 1 5.56351 21.807 0
107 1 10.8305 28.805 0
108 1 1.54222 11.1403 0
109 1 20.4399 9.84011 0
110 1 20.9882 25.4244 0
111 1 12.1323 6.52965 0
112 1 0.414934 14.9673 0
113 1 8.49565 9.50707 0
114 1 7.76897 10.9718 0
115 1 25.9727 4.78647 0
116 1 4.82289 6.05081 0
117 1 13.5172 8.25439 0
118 1 19.9183 21.6666 0
119 1 26.2573 17.4989 0
120 1 21.4333 27.073 0
121 1 23.0198 29.05 0
122 1 23.4532 11.3702 0
123 1 26.0949 9.75478 0
124 1 29.5564 3.32226 0
125 1 18.9848 21.8642 0
126 1 12.4059 17.1474 0
127 1 10.6867 4.33439 0
128 1 24.8031 27.5691 0
129 1 22.9949 15.7004 0
130 1 20.7536 17.9748 0
131 1 23.5329 0.374611 0
132 1 4.85135 22.5363 0
133 1 1.63681 17.7172 0
134 1 16.151 18.8514 0
135 1 2.11821 0.443985 0
136 1 7.58903 29.5929 0
137 1 24.0647 9.46825 0
138 1 24.8035 11.813 0
139 1 3.32012 5.93708 0
140 1 6.72122 2.1745 0
141 1 9.95115 16.2682 0
142 1 3.10055 10.4939 0
143 1 21.332 4.51282 0
144 1 1.78473 16.845 0
145 1 17.9023 8.08722 0
146 1 11.6053 15.7785 0
147 1 27.0258 3.0605 0
148 1 16.9583 20.8542 0
149 1 20.9855 28.17 0
150 1 11.0086 10.6613 0
151 1 12.1284 14.7731 0
152 1 5.4197 16.4031 0
153 1 3.63689 23.2928 0
154 1 20.1385 28.959 0
155 1 17.9396 -0.12851 0
156 1 20.7571 19.6007 0
157 1 23.643 17.64 0
158 1 13.0867 10.2653 0
159 1 8.25525 22.1008 0
160 1 26.1182 23.1286 0
161 1 18.6611 18.1574 0
162 1 11.1474 22.3472 0
163 1 24.1136 20.6684 0
164 1 16.0412 7.15672 0
165 1 10.211 24.5454 0
166 1 0.253913 12.1399 0
167 1 22.4436 12.6056 0
168 1 27.4525 19.0577 0
169 1 3.1408 16.19 0
170 1 0.567319 21.3052 0
171 1 3.66772 19.5321 0
172 1 9.50081 10.611 0
173 1 10.9974 5.56556 0
174 1 5.43934 7.76764 0
175 1 22.0723 8.11111 0
176 1 20.9676 3.31807 0
177 1 19.7847 19.7378 0
178 1 8.77606 16.8488 0
179 1 22.9684 22.6158 0
180 1 25.0826 16.1987 0
181 1 4.47003 23.8962 0
182 1 1.37564 1.23787 0
183 1 25.9358 5.88011 0
184 1 2.07779 21.1595 0
185 1 18.4475 9.96352 0
186 1 5.8505 27.5966 0
187 1 27.5669 17.2216 0
188 1 27.3308 27.8124 0
189 1 26.2654 27.9801 0
190 1 25.9329 24.2243 0
191 1 4.72897 3.1562 0
192 1 4.34826 8.61442 0
193 1 24.8666 22.5825 0
194 1 23.1391 25.2036 0
ITEM: TIMESTEP
2340
ITEM: NUMBER OF ATOMS
194
ITEM: BOX BOUNDS pp pp pp
0.0000000000000000e+00 3.0000000000000000e+01
0.0000000000000000e+00 3.0000000000000000e+01
-5.0000000000000000e-01 5.0000000000000000e-01
ITEM: ATOMS id type x y z
1 1 24.5658 5.93775 0
2 1 18.9179 2.84848 0
3 1 9.02814 20.8283 0
4 1 7.93276 27.9273 0
5 1 5.26907 21.0503 0
6 1 12.1402 3.68195 0
7 1 7.46783 25.1912 0
8 1 22.1828 20.8792 0
9 1 11.739 20.9855 0
10 1 26.7306 14.1517 0
11 1 28.5779 8.03874 0
12 1 29.4725 13.4036 0
13 1 20.7173 22.3598 0
14 1 2.54158 25.3259 0
15 1 13.0006 1.77874 0
16 1 13.5751 17.8964 0
17 1 0.580953 24.635 0
18 1 17.7764 3.43671 0
19 1 23.0215 27.0933 0
20 1 6.93429 22.4475 0
21 1 19.1441 29.0644 0
22 1 21.3587 1.59228 0
23 1 0.63052 28.3206 0
24 1 18.1974 4.19871 0
25 1 4.39664 7.44127 0
26 1 1.40061 4.44022 0
27 1 2.97992 14.4627 0
28 1 21.4254 24.5759 0
29 1 13.0791 7.48474 0
30 1 23.5558 27.8402 0
31 1 12.9538 26.7466 0
32 1 0.178561 29.4325 0
33 1 6.19104 23.0184 0
34 1 5.42661 14.5555 0
35 1 19.6823 0.674027 0
36 1 8.98542 18.0321 0
37 1 18.1654 15.0444 0
38 1 28.001 0.972824 0
39 1 25.0632 9.97966 0
40 1 14.9303 6.71255 0
41 1 3.10512 8.12733 0
42 1 22.5057 14.639 0
43 1 6.44985 20.4058 0
44 1 2.60742 17.8669 0
45 1 4.99836 0.447995 0
46 1 5.33445 27.9907 0
47 1 13.3102 18.9536 0
48 1 0.455781 26.3034 0
49 1 25.063 7.33448 0
50 1 12.9526 25.9517 0
51 1 29.3571 11.4889 0
52 1 1.70997 8.85662 0
53 1 10.6696 21.1809 0
54 1 7.44886 20.0118 0
55 1 19.4255 7.54396 0
56 1 28.7952 23.2439 0
57 1 18.3409 6.11396 0
58 1 0.110284 9.55618 0
59 1 22.22 0.284973 0
60 1 2.35829 23.5113 0
61 1 27.4418 9.28912 0
62 1 20.1013 11.0588 0
63 1 8.59169 27.2036 0
64 1 17.1846 15.3126 0
65 1 25.3902 18.7476 0
66 1 8.388 19.7449 0
67 1 7.09556 14.2301 0
68 1 10.823 19.0317 0
69 1 13.7939 22.4642 0
70 1 14.0576 20.8436 0
71 1 27.2139 21.4837 0
72 1 22.3586 23.3233 0
73 1 3.93996 1.75596 0
74 1 10.8879 6.758 0
75 1 26.2298 19.5983 0
76 1 16.4245 27.5725 0
77 1 4.1724 25.5786 0
78 1 1.54832 19.1212 0
79 1 13.5478 13.9578 0
80 1 7.91797 1.22923 0
81 1 3.30679 4.52583 0
82 1 28.8363 2.61864 0
83 1 22.3996 19.2709 0
84 1 28.0663 26.2825 0
85 1 14.4753 9.57871 0
86 1 23.2768 19.3934 0
87 1 6.95732 23.9956 0
88 1 23.2215 23.8394 0
89 1 25.5842 21.9098 0
90 1 14.9876 29.2836 0
91 1 15.4822 5.69358 0
92 1 4.40599 20.0258 0
93 1 26.2343 7.85932 0
94 1 1.23793 14.1437 0
95 1 24.8273 2.55154 0
96 1 28.2252 27.8367 0
97 1 24.4728 29.4821 0
98 1 14.1921 1.69187 0
99 1 15.2516 18.7064 0
100 1 18.3037 23.7457 0
101 1 11.8275 26.0417 0
102 1 7.46556 8.98993 0
103 1 23.864 16.277 0
104 1 15.5714 4.47575 0
105 1 20.2438 20.6678 0
106 1 5.72241 21.899 0
107 1 10.9161 28.6793 0
108 1 1.49259 11.3098 0
109 1 20.6229 9.88969 0
110 1 21.193 25.5194 0
111 1 12.4946 6.44027 0
112 1 0.610527 15.2942 0
113 1 8.1948 9.59244 0
114 1 7.29849 11.41 0
115 1 25.9325 4.8404 0
116 1 4.51427 6.18596 0
117 1 13.7596 8.62513 0
118 1 19.9547 21.543 0
119 1 26.0404 17.5129 0
120 1 21.5688 27.2239 0
121 1 23.1814 28.9139 0
122 1 23.2659 11.1375 0
123 1 25.9644 9.51657 0
124 1 29.8389 3.12079 0
125 1 18.939 21.9943 0
126 1 12.7372 17.4107 0
127 1 10.5866 4.16665 0
128 1 24.8512 27.638 0
129 1 22.9481 15.997 0
130 1 21.4437 18.1885 0
131 1 23.5106 0.302155 0
132 1 4.00689 22.5443 0
133 1 1.5357 17.8167 0
134 1 16.9284 19.475 0
135 1 2.13662 0.743804 0
136 1 7.36556 29.7818 0
137 1 24.1775 9.72452 0
138 1 24.2692 12.2212 0
139 1 3.6079 5.78945 0
140 1 6.58174 2.53089 0
141 1 9.81986 16.1463 0
142 1 2.69389 10.7451 0
143 1 21.2649 4.35242 0
144 1 1.93589 16.687 0
145 1 18.3119 7.90144 0
146 1 11.396 15.6964 0
147 1 26.5996 3.22386 0
148 1 17.23 21.0637 0
149 1 21.1016 28.0982 0
150 1 10.8048 10.8183 0
151 1 12.1412 14.9811 0
152 1 5.21697 16.1409 0
153 1 3.61128 23.2963 0
154 1 20.0489 28.9838 0
155 1 18.044 29.5738 0
156 1 20.8428 19.8732 0
157 1 23.6944 17.3944 0
158 1 13.1637 10.5304 0
159 1 8.09085 22.1248 0
160 1 26.4253 23.2367 0
161 1 18.7275 18.1491 0
162 1 11.3101 22.1002 0
163 1 24.2233 20.6647 0
164 1 15.8133 7.20119 0
165 1 10.263 24.1697 0
166 1 0.227705 11.9473 0
167 1 22.6348 12.8254 0
168 1 27.373 18.896 0
169 1 3.14372 16.1248 0
170 1 0.522183 20.7715 0
171 1 3.65757 19.5574 0
172 1 9.30651 10.482 0
173 1 11.1103 5.71144 0
174 1 5.59929 8.03801 0
175 1 21.7114 8.40496 0
176 1 20.7433 3.1318 0
177 1 19.9503 19.0598 0
178 1 8.92379 16.5808 0
179 1 22.9927 22.4297 0
180 1 25.0826 16.1915 0
181 1 4.59992 23.9649 0
182 1 1.17588 1.25852 0
183 1 25.9242 5.83488 0
184 1 1.72714 20.8802 0
185 1 18.588 9.68146 0
186 1 6.10644 27.1385 0
187 1 27.3527 17.594 0
188 1 27.2926 27.811 0
189 1 26.2975 28.2146 0
190 1 25.922 24.5611 0
191 1 4.30516 2.89225 0
192 1 4.08616 8.88211 0
193 1 24.5409 22.2103 0
194 1 23.4022 25.3904 0
ITEM: TIMESTEP
2355
ITEM: NUMBER OF ATOMS
194
ITEM: BOX BOUNDS pp pp pp
0.0000000000000000e+00 3.0000000000000000e+01
0.0000000000000000e+00 3.0000000000000000e+01
-5.0000000000000000e-01 5.0000000000000000e-01
ITEM: ATOMS id type x y z
1 1 24.1756 6.1431 0
2 1 18.904 2.68482 0
3 1 8.79638 20.5369 0
4 1 7.54796 28.0946 0
5 1 4.78533 21.186 0
6 1 12.2035 3.76776 0
7 1 7.84996 24.9826 0
8 1 21.8119 20.8564 0
9 1 11.446 20.7977 0
10 1 26.1525 14.3364 0
11 1 28.1713 7.96952 0
12 1 29.1978 13.5242 0
13 1 20.7209 22.1997 0
14 1 2.90125 25.0583 0
15 1 12.8043 2.08799 0
16 1 14.0064 18.1008 0
17 1 0.58192 24.9323 0
18 1 17.8 3.15392 0
19 1 22.8604 27.2002 0
20 1 7.00488 22.4501 0
21 1 19.0102 28.8663 0
22 1 21.1914 1.50751 0
23 1 0.440547 28.2487 0
24 1 18.5291 4.18245 0
25 1 4.04672 7.43484 0
26 1 1.36066 4.43575 0
27 1 3.02123 14.602 0
28 1 21.486 24.4029 0
29 1 13.1816 7.35007 0
30 1 24.0948 27.4963 0
31 1 13.128 27.0616 0
32 1 0.0167808 29.5722 0
33 1 6.1607 23.067 0
34 1 5.35996 14.7929 0
35 1 19.9774 0.781642 0
36 1 9.21207 17.8706 0
37 1 18.5391 15.1461 0
38 1 28.0041 1.11232 0
39 1 25.1773 10.1004 0
40 1 14.8358 6.89859 0
41 1 3.19607 8.1638 0
42 1 22.0484 14.9749 0
43 1 6.91071 20.2175 0
44 1 2.64154 18.2558 0
45 1 5.1787 0.693657 0
46 1 5.16231 27.6813 0
47 1 12.9393 18.9119 0
48 1 0.391211 26.0951 0
49 1 25.0166 7.29004 0
50 1 12.9321 25.7 0
51 1 29.103 11.3068 0
52 1 2.24286 8.9504 0
53 1 10.7507 21.5374 0
54 1 7.8553 20.3783 0
55 1 19.3452 7.32744 0
56 1 29.1208 22.9926 0
57 1 18.5411 5.49175 0
58 1 0.145831 9.55985 0
59 1 22.1435 0.333913 0
60 1 2.8912 24.0169 0
61 1 27.7529 9.22126 0
62 1 19.7598 11.0437 0
63 1 8.34994 27.2506 0
64 1 17.0529 15.2582 0
65 1 25.3997 18.4361 0
66 1 8.61886 19.2738 0
67 1 7.44923 13.6578 0
68 1 11.1139 19.0111 0
69 1 13.1517 22.517 0
70 1 14.2456 20.9998 0
71 1 27.4051 20.8648 0
72 1 22.4196 23.2518 0
73 1 3.78703 1.8784 0
74 1 10.6323 6.65954 0
75 1 26.1314 19.1869 0
76 1 16.4851 27.9826 0
77 1 3.98103 25.6764 0
78 1 1.29441 18.9015 0
79 1 13.8937 13.7372 0
80 1 7.68591 1.33827 0
81 1 3.88599 4.61453 0
82 1 28.7099 2.75615 0
83 1 22.417 19.5486 0
84 1 27.8242 26.2598 0
85 1 14.4706 9.83845 0
86 1 23.5084 19.4804 0
87 1 6.65074 24.4567 0
88 1 23.3244 23.735 0
89 1 25.5214 21.8772 0
90 1 15.1112 29.4321 0
91 1 15.2376 5.72885 0
92 1 4.49839 20.1159 0
93 1 26.2416 7.49272 0
94 1 1.25648 13.8071 0
95 1 25.0699 2.74675 0
96 1 28.3429 27.7811 0
97 1 24.7777 29.1338 0
98 1 13.8473 1.49965 0
99 1 15.5371 18.4917 0
100 1 18.4168 23.9205 0
101 1 12.0993 26.1912 0
102 1 7.28724 8.44298 0
103 1 23.8292 15.9853 0
104 1 15.5732 4.34778 0
105 1 20.4242 20.5949 0
106 1 5.93577 22.1759 0
107 1 11.0016 28.5536 0
108 1 1.44139 11.4798 0
109 1 20.8042 9.94288 0
110 1 21.3199 25.8481 0
111 1 12.8551 6.35299 0
112 1 0.804031 15.622 0
113 1 8.21828 9.85587 0
114 1 6.82842 11.8476 0
115 1 25.8921 4.8401 0
116 1 4.32421 6.41351 0
117 1 14.0082 9.00266 0
118 1 20.1491 21.4998 0
119 1 25.8262 17.5292 0
120 1 21.9161 26.94 0
121 1 23.3316 28.8644 0
122 1 23.0812 10.9061 0
123 1 25.8688 9.26014 0
124 1 30.1254 2.92336 0
125 1 18.6702 22.2003 0
126 1 12.9974 17.6326 0
127 1 10.4887 4.00017 0
128 1 24.9165 27.7113 0
129 1 22.8021 16.2767 0
130 1 22.1352 18.4063 0
131 1 23.4712 0.235995 0
132 1 3.28928 22.2778 0
133 1 1.41354 17.9341 0
134 1 17.7051 20.1001 0
135 1 2.15919 1.04092 0
136 1 7.14293 29.9723 0
137 1 24.1463 9.94175 0
138 1 23.7317 12.6279 0
139 1 3.77593 5.55337 0
140 1 6.4426 2.88685 0
141 1 9.80554 15.9687 0
142 1 2.28517 10.9969 0
143 1 21.196 4.18771 0
144 1 2.09475 16.5148 0
145 1 18.5628 7.78966 0
146 1 11.1699 15.6293 0
147 1 26.1724 3.38784 0
148 1 17.502 21.2715 0
149 1 21.0053 28.4624 0
150 1 10.5989 10.9748 0
151 1 12.1707 15.174 0
152 1 5.0143 15.8765 0
153 1 3.64068 23.4928 0
154 1 20.1298 28.9896 0
155 1 18.1492 29.2762 0
156 1 21.2305 20.024 0
157 1 23.7454 17.1463 0
158 1 13.242 10.7942 0
159 1 7.924 22.1479 0
160 1 26.7302 23.3453 0
161 1 18.796 18.1422 0
162 1 11.6401 22.0178 0
163 1 24.3322 20.662 0
164 1 15.6767 7.291 0
165 1 10.3151 23.794 0
166 1 0.349656 11.8411 0
167 1 22.8276 13.0447 0
168 1 27.2922 18.7577 0
169 1 3.14238 16.061 0
170 1 0.476795 20.2365 0
171 1 3.34642 19.3943 0
172 1 9.11165 10.3515 0
173 1 11.2307 5.8412 0
174 1 5.79038 8.32398 0
175 1 21.3499 8.69957 0
176 1 20.5206 2.94839 0
177 1 19.9715 18.3427 0
178 1 8.95613 16.3715 0
179 1 23.0227 22.2414 0
180 1 25.0777 16.1863 0
181 1 4.72725 24.0309 0
182 1 0.971891 1.28183 0
183 1 25.9094 5.84522 0
184 1 1.37709 20.6008 0
185 1 18.7291 9.39868 0
186 1 6.40774 26.611 0
187 1 27.13 17.9449 0
188 1 27.0246 27.7864 0
189 1 26.3101 28.459 0
190 1 25.9123 24.8946 0
191 1 3.90025 2.72227 0
192 1 3.82166 9.14332 0
193 1 24.203 21.8418 0
194 1 23.6643 25.5758 0
ITEM: TIMESTEP
2370
ITEM: NUMBER OF ATOMS
194
ITEM: BOX BOUNDS pp pp pp
0.0000000000000000e+00 3.0000000000000000e+01
0.0000000000000000e+00 3.0000000000000000e+01
-5.0000000000000000e-01 5.0000000000000000e-01
ITEM: ATOMS id type x y z
1 1 23.7888 6.35084 0
2 1 18.8871 2.5251 0
3 1 9.0334 20.2212 0
4 1 7.16164 28.2632 0
5 1 4.30223 21.3239 0
6 1 12.2659 3.85295 0
7 1 8.22841 24.7722 0
8 1 21.4716 20.9514 0
9 1 11.3107 20.4935 0
10 1 25.5742 14.5214 0
11 1 27.763 7.90439 0
12 1 28.9237 13.6443 0
13 1 20.8546 22.1948 0
14 1 3.27641 25.3125 0
15 1 12.6118 2.39584 0
16 1 14.4449 18.3115 0
17 1 0.603298 25.1607 0
18 1 17.823 2.86094 0
19 1 22.8154 27.3624 0
20 1 7.02368 22.4162 0
21 1 18.9927 28.6032 0
22 1 21.0244 1.42229 0
23 1 0.249084 28.1801 0
24 1 18.8723 4.12236 0
25 1 3.69713 7.44192 0
26 1 1.32049 4.43092 0
27 1 3.06233 14.7446 0
28 1 21.5485 24.2296 0
29 1 13.2913 7.23772 0
30 1 24.3393 27.0738 0
31 1 13.3004 27.4138 0
32 1 29.8564 29.7084 0
33 1 6.02097 23.3688 0
34 1 5.32365 14.9776 0
35 1 20.2731 0.88857 0
36 1 9.43758 17.7088 0
37 1 18.9103 15.2481 0
38 1 28.0075 1.2526 0
39 1 25.3316 10.2371 0
40 1 14.5809 7.00208 0
41 1 3.27238 8.22488 0
42 1 21.5927 15.3129 0
43 1 7.26761 20.015 0
44 1 2.64019 18.5967 0
45 1 5.35875 0.939791 0
46 1 4.99161 27.3705 0
47 1 12.57 18.8642 0
48 1 0.306406 25.9559 0
49 1 24.9743 7.24298 0
50 1 12.9646 25.3782 0
51 1 28.8515 11.1256 0
52 1 2.77444 9.04378 0
53 1 10.4296 21.7894 0
54 1 7.89463 20.7802 0
55 1 19.6445 6.91936 0
56 1 29.4463 22.7414 0
57 1 18.7354 4.9202 0
58 1 0.181424 9.56399 0
59 1 22.07 0.38374 0
60 1 2.85545 24.1734 0
61 1 28.0645 9.14921 0
62 1 19.4197 11.0263 0
63 1 8.10879 27.2963 0
64 1 16.9238 15.2036 0
65 1 25.3152 18.2596 0
66 1 8.8524 18.8064 0
67 1 7.80243 13.085 0
68 1 11.406 18.9911 0
69 1 12.6581 22.6814 0
70 1 14.4332 21.1566 0
71 1 27.5958 20.2454 0
72 1 22.4523 23.1637 0
73 1 3.56499 1.58727 0
74 1 10.36 6.58824 0
75 1 26.0639 18.795 0
76 1 16.5457 28.3931 0
77 1 3.873 25.8471 0
78 1 1.01377 18.8252 0
79 1 14.2395 13.5168 0
80 1 7.45246 1.4449 0
81 1 4.50702 4.55897 0
82 1 28.5865 2.89343 0
83 1 22.4786 19.7941 0
84 1 27.582 26.2395 0
85 1 14.5177 10.2076 0
86 1 23.8003 19.5723 0
87 1 6.3462 24.9167 0
88 1 23.4545 23.6441 0
89 1 25.4544 21.844 0
90 1 15.2351 29.5804 0
91 1 14.9923 5.76715 0
92 1 4.59371 20.2066 0
93 1 26.2436 7.12473 0
94 1 1.27481 13.4712 0
95 1 25.2829 2.91082 0
96 1 28.4595 27.7241 0
97 1 25.0801 28.7835 0
98 1 13.4986 1.30966 0
99 1 15.8206 18.2766 0
100 1 18.5302 24.0943 0
101 1 12.3198 26.3735 0
102 1 7.1069 7.89711 0
103 1 23.8505 15.6978 0
104 1 15.5742 4.22326 0
105 1 20.482 20.5356 0
106 1 6.11037 22.3042 0
107 1 11.0872 28.4278 0
108 1 1.27546 11.7391 0
109 1 20.9849 9.99596 0
110 1 21.4313 26.1626 0
111 1 13.2093 6.24359 0
112 1 0.99987 15.9501 0
113 1 8.12043 10.0709 0
114 1 6.35875 12.2856 0
115 1 25.8513 4.78993 0
116 1 4.24359 6.69415 0
117 1 14.2028 9.27145 0
118 1 20.1686 21.4453 0
119 1 25.6855 17.3872 0
120 1 22.1541 26.6049 0
121 1 23.4856 28.8163 0
122 1 22.8994 10.6736 0
123 1 25.7809 8.99702 0
124 1 0.409232 2.72497 0
125 1 18.4014 22.4043 0
126 1 13.2496 17.855 0
127 1 10.392 3.83399 0
128 1 25.2864 27.8774 0
129 1 22.6071 16.5575 0
130 1 22.8282 18.6293 0
131 1 23.4278 0.165223 0
132 1 2.58441 21.9716 0
133 1 1.32444 17.9092 0
134 1 18.4834 20.7249 0
135 1 2.17872 1.33914 0
136 1 6.92119 0.16507 0
137 1 24.0655 10.1508 0
138 1 23.5833 12.8219 0
139 1 3.80871 5.37432 0
140 1 6.30369 3.24248 0
141 1 9.95708 15.713 0
142 1 2.02129 11.1558 0
143 1 21.1253 4.01981 0
144 1 2.24686 16.3459 0
145 1 18.4343 7.87102 0
146 1 10.9359 15.5666 0
147 1 25.7743 3.58611 0
148 1 17.7746 21.4816 0
149 1 21.0163 28.7767 0
150 1 10.3914 11.1307 0
151 1 12.2055 15.3631 0
152 1 4.78053 15.6647 0
153 1 4.12829 23.481 0
154 1 20.1232 29.0448 0
155 1 18.1192 29.0441 0
156 1 21.6499 19.925 0
157 1 23.7945 16.8913 0
158 1 13.3222 11.0563 0
159 1 7.95589 22.1036 0
160 1 27.0343 23.4543 0
161 1 18.8687 18.1363 0
162 1 12.066 22.0434 0
163 1 24.4416 20.6558 0
164 1 15.7 7.45737 0
165 1 10.3674 23.4179 0
166 1 0.438754 11.7375 0
167 1 22.6307 13.4761 0
168 1 27.293 19.03 0
169 1 3.1457 15.9925 0
170 1 0.359684 19.6623 0
171 1 3.06142 19.2765 0
172 1 9.03908 10.2693 0
173 1 11.3692 5.9436 0
174 1 5.98309 8.60952 0
175 1 20.9871 8.99616 0
176 1 20.2986 2.76611 0
177 1 19.9893 17.6256 0
178 1 8.82572 16.2424 0
179 1 23.0529 22.0574 0
180 1 25.0674 16.1831 0
181 1 4.85567 24.0982 0
182 1 0.771291 1.30483 0
183 1 25.8937 5.9052 0
184 1 1.10013 20.3571 0
185 1 18.8705 9.11428 0
186 1 6.70843 26.0847 0
187 1 26.8135 17.8876 0
188 1 26.7987 27.7244 0
189 1 26.278 28.7391 0
190 1 25.9031 25.2273 0
191 1 3.56418 2.96547 0
192 1 3.55735 9.4011 0
193 1 23.865 21.4756 0
194 1 23.926 25.762 0
ITEM: TIMESTEP
2385
ITEM: NUMBER OF ATOMS
194
ITEM: BOX BOUNDS pp pp pp
0.0000000000000000e+00 3.0000000000000000e+01
0.0000000000000000e+00 3.0000000000000000e+01
-5.0000000000000000e-01 5.0000000000000000e-01
ITEM: ATOMS id type x y z
1 1 23.4045 6.56017 0
2 1 18.8759 2.3677 0
3 1 9.48495 19.8816 0
4 1 6.77805 28.429 0
5 1 3.8198 21.4612 0
6 1 12.3282 3.93557 0
7 1 8.60564 24.5621 0
8 1 21.1584 21.1627 0
9 1 11.1751 20.1897 0
10 1 24.9952 14.7078 0
11 1 27.3545 7.84338 0
12 1 28.6498 13.7642 0
13 1 21.0423 22.2474 0
14 1 3.11622 25.3771 0
15 1 12.4211 2.70373 0
16 1 14.8822 18.5207 0
17 1 0.746139 25.0366 0
18 1 17.8453 2.56995 0
19 1 22.8712 27.5954 0
20 1 7.07729 22.4714 0
21 1 19.0942 28.2855 0
22 1 21.1108 1.53189 0
23 1 0.0563579 28.113 0
24 1 19.2954 3.55717 0
25 1 3.36013 7.3557 0
26 1 1.2801 4.42564 0
27 1 3.10358 14.8913 0
28 1 21.6138 24.0537 0
29 1 13.405 7.1708 0
30 1 24.5502 26.6535 0
31 1 13.4704 27.7631 0
32 1 29.6967 29.8434 0
33 1 5.8855 23.7205 0
34 1 5.4395 14.9489 0
35 1 20.3165 0.800378 0
36 1 9.66204 17.5467 0
37 1 19.2811 15.3501 0
38 1 28.0114 1.39379 0
39 1 25.4833 10.3698 0
40 1 14.3232 7.09836 0
41 1 3.35315 8.32215 0
42 1 21.1384 15.6521 0
43 1 7.58533 19.7802 0
44 1 2.33372 18.4517 0
45 1 5.53963 1.18572 0
46 1 4.83502 27.0756 0
47 1 12.396 18.7747 0
48 1 0.100213 26.1694 0
49 1 24.9362 7.19295 0
50 1 13.0018 25.0544 0
51 1 28.6017 10.9444 0
52 1 2.77842 9.07849 0
53 1 10.1113 22.0417 0
54 1 7.75495 21.2287 0
55 1 19.9435 6.51163 0
56 1 29.7718 22.4902 0
57 1 18.8494 4.84941 0
58 1 0.216709 9.5687 0
59 1 21.9976 0.434398 0
60 1 2.75813 23.9863 0
61 1 28.3753 9.07285 0
62 1 19.0801 11.008 0
63 1 7.86417 27.3445 0
64 1 16.7952 15.1489 0
65 1 25.0286 18.2126 0
66 1 9.08637 18.3414 0
67 1 8.15466 12.5115 0
68 1 11.5059 19.0111 0
69 1 12.7918 23.361 0
70 1 14.6207 21.3135 0
71 1 27.9054 19.8065 0
72 1 22.4814 23.0715 0
73 1 3.33904 1.28875 0
74 1 10.0888 6.51712 0
75 1 26.0963 18.5096 0
76 1 16.607 28.8048 0
77 1 4.35103 26.5327 0
78 1 0.887701 18.7294 0
79 1 14.5852 13.2963 0
80 1 7.21704 1.54803 0
81 1 5.16001 4.43078 0
82 1 28.4636 3.02969 0
83 1 23.0643 19.9239 0
84 1 27.3392 26.2212 0
85 1 14.5977 10.6653 0
86 1 24.0882 19.6674 0
87 1 6.01976 25.3572 0
88 1 23.5873 23.5536 0
89 1 25.3843 21.809 0
90 1 15.3597 29.7281 0
91 1 14.745 5.80985 0
92 1 4.68702 20.2979 0
93 1 26.2445 6.76467 0
94 1 1.29299 13.1335 0
95 1 25.271 2.78216 0
96 1 28.5747 27.6665 0
97 1 25.2863 28.7256 0
98 1 13.1475 1.12231 0
99 1 16.1001 18.0617 0
100 1 18.6434 24.2668 0
101 1 12.538 26.561 0
102 1 6.92318 7.35336 0
103 1 23.8741 15.4177 0
104 1 15.5747 4.1002 0
105 1 20.5625 20.3501 0
106 1 6.0606 22.3563 0
107 1 11.1729 28.3019 0
108 1 1.31434 12.1241 0
109 1 21.1754 10.1072 0
110 1 21.2757 26.3215 0
111 1 13.5613 6.08942 0
112 1 1.20036 16.2798 0
113 1 7.8314 10.2262 0
114 1 5.89004 12.7243 0
115 1 25.8262 4.80698 0
116 1 4.25404 6.84865 0
117 1 14.362 9.45328 0
118 1 20.1049 21.4409 0
119 1 25.6379 17.0367 0
120 1 22.5623 26.3551 0
121 1 23.6407 28.7705 0
122 1 22.7219 10.4391 0
123 1 25.6916 8.73671 0
124 1 0.693133 2.52393 0
125 1 18.1397 22.6276 0
126 1 13.5033 18.0834 0
127 1 10.296 3.66794 0
128 1 25.7855 27.7704 0
129 1 22.4183 16.8373 0
130 1 23.5218 18.8586 0
131 1 23.3809 0.0905089 0
132 1 1.88037 21.6656 0
133 1 1.27736 17.7382 0
134 1 19.2698 21.3392 0
135 1 2.19809 1.63808 0
136 1 6.70002 0.36155 0
137 1 23.9843 10.3619 0
138 1 23.6841 12.8753 0
139 1 3.81064 5.27087 0
140 1 6.16457 3.59807 0
141 1 9.92111 15.4728 0
142 1 1.92326 11.1953 0
143 1 21.053 3.84972 0
144 1 2.30702 16.2096 0
145 1 18.3075 7.95594 0
146 1 10.8942 15.4878 0
147 1 25.5853 4.00582 0
148 1 18.0317 21.6837 0
149 1 21.2099 29.0225 0
150 1 10.1824 11.2855 0
151 1 12.2356 15.553 0
152 1 4.39203 15.6664 0
153 1 4.53347 23.3903 0
154 1 19.9294 29.168 0
155 1 17.9741 28.8681 0
156 1 21.5335 19.8401 0
157 1 23.8423 16.6294 0
158 1 13.405 11.3163 0
159 1 8.17425 22.0056 0
160 1 27.3381 23.5635 0
161 1 18.9453 18.1286 0
162 1 11.8619 21.552 0
163 1 24.5696 20.6204 0
164 1 15.7259 7.62469 0
165 1 10.4199 23.0398 0
166 1 0.155917 11.6285 0
167 1 22.1846 14.048 0
168 1 27.1824 19.1699 0
169 1 3.23828 15.887 0
170 1 0.00578347 19.2234 0
171 1 3.0771 19.6439 0
172 1 9.15913 10.2476 0
173 1 11.5074 6.04573 0
174 1 6.17916 8.89308 0
175 1 20.6138 9.23506 0
176 1 20.0753 2.58335 0
177 1 20.0032 16.9101 0
178 1 8.69583 16.1152 0
179 1 23.0325 21.9232 0
180 1 25.0518 16.182 0
181 1 5.06744 24.2449 0
182 1 0.573402 1.33018 0
183 1 25.8739 5.96432 0
184 1 0.869342 20.1439 0
185 1 19.011 8.82623 0
186 1 7.03101 25.5759 0
187 1 26.4953 17.7511 0
188 1 26.5852 27.6561 0
189 1 26.2398 29.0214 0
190 1 25.894 25.5601 0
191 1 3.22914 3.21589 0
192 1 3.71138 9.89727 0
193 1 23.5564 21.0918 0
194 1 24.1787 25.9306 0
ITEM: TIMESTEP
2400
ITEM: NUMBER OF ATOMS
194
ITEM: BOX BOUNDS pp pp pp
0.0000000000000000e+00 3.0000000000000000e+01
0.0000000000000000e+00 3.0000000000000000e+01
-5.0000000000000000e-01 5.0000000000000000e-01
ITEM: ATOMS id type x y z
1 1 23.0216 6.7701 0
2 1 18.8861 2.21144 0
3 1 9.93705 19.5406 0
4 1 6.39586 28.5934 0
5 1 3.33863 21.5958 0
6 1 12.3906 4.01575 0
7 1 8.98236 24.3522 0
8 1 21.3884 21.2524 0
9 1 11.0328 19.9182 0
10 1 24.5358 14.832 0
11 1 26.9447 7.78255 0
12 1 28.3759 13.8842 0
13 1 21.2299 22.311 0
14 1 2.95152 25.435 0
15 1 12.2303 3.01323 0
16 1 15.3208 18.7271 0
17 1 0.893828 24.901 0
18 1 17.8511 2.28267 0
19 1 22.9293 27.8285 0
20 1 7.25346 22.5376 0
21 1 19.1975 27.9724 0
22 1 21.3256 1.74412 0
23 1 29.8612 28.0457 0
24 1 19.6543 3.10534 0
25 1 3.00296 7.19214 0
26 1 1.23973 4.41987 0
27 1 3.12832 14.9525 0
28 1 21.6826 23.8736 0
29 1 13.2747 7.1232 0
30 1 24.9989 26.677 0
31 1 13.6387 28.1105 0
32 1 29.5377 29.9784 0
33 1 5.92074 23.9467 0
34 1 5.56187 14.9121 0
35 1 20.2324 0.607867 0
36 1 9.9529 17.3026 0
37 1 19.6518 15.4502 0
38 1 28.0157 1.53604 0
39 1 25.6325 10.5009 0
40 1 14.311 7.1775 0
41 1 3.54002 8.33454 0
42 1 20.7144 15.9771 0
43 1 7.90382 19.547 0
44 1 2.00918 18.2861 0
45 1 5.72446 1.42993 0
46 1 5.43417 27.6185 0
47 1 12.6562 18.5907 0
48 1 29.8892 26.3951 0
49 1 24.9025 7.14054 0
50 1 13.0417 24.7556 0
51 1 28.353 10.763 0
52 1 2.55375 9.24163 0
53 1 9.72667 22.1959 0
54 1 7.49538 21.4911 0
55 1 20.2419 6.1038 0
56 1 0.0975649 22.2388 0
57 1 18.9589 4.80148 0
58 1 0.251313 9.57384 0
59 1 21.9244 0.485464 0
60 1 2.66242 23.8022 0
61 1 28.6856 8.99556 0
62 1 18.7407 10.9893 0
63 1 7.61766 27.394 0
64 1 16.6667 15.0942 0
65 1 24.7201 18.1539 0
66 1 9.25377 17.9593 0
67 1 8.50679 11.9377 0
68 1 11.1814 19.0929 0
69 1 12.9222 24.0176 0
70 1 14.8082 21.4704 0
71 1 28.4791 19.7241 0
72 1 22.5124 22.9791 0
73 1 3.10862 0.992378 0
74 1 9.82021 6.44498 0
75 1 26.0102 18.4977 0
76 1 16.6703 29.2176 0
77 1 4.07787 26.3834 0
78 1 0.991814 18.4712 0
79 1 14.9308 13.0757 0
80 1 6.97815 1.64642 0
81 1 5.61633 4.50875 0
82 1 28.3405 3.16474 0
83 1 23.6079 19.935 0
84 1 27.0939 26.2045 0
85 1 14.6737 11.1232 0
86 1 24.4839 19.8257 0
87 1 5.64858 25.7664 0
88 1 23.7151 23.4603 0
89 1 25.3118 21.7711 0
90 1 15.486 29.8745 0
91 1 14.6371 5.8319 0
92 1 4.77768 20.3916 0
93 1 26.373 6.66234 0
94 1 1.28734 13.2244 0
95 1 25.2492 2.63827 0
96 1 28.6914 27.609 0
97 1 25.3855 28.806 0
98 1 12.7958 0.936021 0
99 1 16.3751 17.8485 0
100 1 18.7563 24.4383 0
101 1 12.7584 26.7484 0
102 1 6.73865 6.81081 0
103 1 23.7807 15.2102 0
104 1 15.5749 3.97771 0
105 1 20.5975 20.1461 0
106 1 5.89042 22.3986 0
107 1 11.2588 28.1759 0
108 1 1.40564 12.0941 0
109 1 21.3829 10.2613 0
110 1 21.0885 26.4672 0
111 1 13.7752 5.95453 0
112 1 1.39621 16.6133 0
113 1 7.5428 10.3811 0
114 1 5.42156 13.1632 0
115 1 25.9329 5.07543 0
116 1 4.30363 6.96882 0
117 1 14.5212 9.63688 0
118 1 20.2505 21.5836 0
119 1 25.6354 16.7457 0
120 1 23.0044 26.1205 0
121 1 23.7944 28.7258 0
122 1 22.5473 10.2039 0
123 1 25.602 8.4764 0
124 1 0.977936 2.31882 0
125 1 17.892 22.9332 0
126 1 13.7558 18.3155 0
127 1 10.2005 3.50188 0
128 1 25.6536 27.5983 0
129 1 22.2324 17.116 0
130 1 24.1451 18.9618 0
131 1 23.3314 0.0120837 0
132 1 1.17616 21.359 0
133 1 1.24185 17.5442 0
134 1 19.3298 21.9443 0
135 1 2.21978 1.93646 0
136 1 6.47811 0.564208 0
137 1 23.9008 10.5734 0
138 1 23.7841 12.9295 0
139 1 3.81467 5.16771 0
140 1 6.22023 3.74849 0
141 1 9.67766 15.2443 0
142 1 1.83375 11.2251 0
143 1 20.9785 3.67786 0
144 1 2.29875 16.0968 0
145 1 18.1798 8.04039 0
146 1 11.0607 15.4 0
147 1 25.2949 4.02753 0
148 1 18.2791 21.803 0
149 1 21.4048 29.2695 0
150 1 9.97113 11.4383 0
151 1 12.2609 15.7425 0
152 1 4.13245 15.6457 0
153 1 4.89493 23.2414 0
154 1 19.7317 29.2897 0
155 1 17.8273 28.6913 0
156 1 21.4308 19.7499 0
157 1 23.8925 16.3613 0
158 1 13.4918 11.5741 0
159 1 8.50935 22.0959 0
160 1 27.6419 23.6727 0
161 1 19.0234 18.1195 0
162 1 11.6555 21.0587 0
163 1 24.7236 20.6333 0
164 1 15.7487 7.79075 0
165 1 10.5388 22.7588 0
166 1 29.835 11.5144 0
167 1 21.7392 14.62 0
168 1 26.8081 18.9516 0
169 1 3.28481 15.8726 0
170 1 29.4183 18.9757 0
171 1 3.10515 20.031 0
172 1 9.28057 10.2286 0
173 1 11.6436 6.14882 0
174 1 6.3763 9.17565 0
175 1 20.2239 9.43121 0
176 1 19.9204 2.25851 0
177 1 19.9864 16.2123 0
178 1 8.57039 15.9871 0
179 1 22.9635 21.8529 0
180 1 24.9764 16.1162 0
181 1 5.15547 24.5743 0
182 1 0.376682 1.35875 0
183 1 25.7023 5.93258 0
184 1 0.637195 19.9254 0
185 1 19.1543 8.53919 0
186 1 7.39642 25.0948 0
187 1 26.3215 17.3577 0
188 1 27.0597 27.4997 0
189 1 26.2493 29.3145 0
190 1 25.885 25.8952 0
191 1 2.89383 3.4655 0
192 1 3.96835 10.46 0
193 1 23.2811 20.7836 0
194 1 24.195 25.6574 0
ITEM: TIMESTEP
2415
ITEM: NUMBER OF ATOMS
194
ITEM: BOX BOUNDS pp pp pp
0.0000000000000000e+00 3.0000000000000000e+01
0.0000000000000000e+00 3.0000000000000000e+01
-5.0000000000000000e-01 5.0000000000000000e-01
ITEM: ATOMS id type x y z
1 1 22.6392 6.98016 0
2 1 18.908 2.05624 0
3 1 10.3007 19.2189 0
4 1 6.08802 28.944 0
5 1 2.8577 21.728 0
6 1 12.4657 4.14454 0
7 1 9.35829 24.1423 0
8 1 22.1667 21.1807 0
9 1 10.8348 20.019 0
10 1 24.6181 14.6754 0
11 1 26.5306 7.72033 0
12 1 28.102 14.0041 0
13 1 21.4182 22.3899 0
14 1 2.78874 25.4931 0
15 1 12.0265 3.27415 0
16 1 15.7609 18.9306 0
17 1 1.04146 24.7662 0
18 1 17.8344 1.99733 0
19 1 22.9905 28.0638 0
20 1 7.43036 22.6299 0
21 1 19.3004 27.6634 0
22 1 21.5377 1.95271 0
23 1 29.6653 27.9772 0
24 1 19.825 3.09143 0
25 1 2.64986 7.02736 0
26 1 1.1999 4.4135 0
27 1 3.12602 14.8712 0
28 1 21.7545 23.6881 0
29 1 13.0128 7.07156 0
30 1 25.3477 26.7074 0
31 1 13.806 28.4565 0
32 1 29.3794 0.114452 0
33 1 6.10773 24.0532 0
34 1 5.68204 14.8753 0
35 1 20.1497 0.41496 0
36 1 10.329 16.9688 0
37 1 19.8206 14.8743 0
38 1 28.0206 1.6795 0
39 1 25.7807 10.6315 0
40 1 14.4331 7.24872 0
41 1 3.72587 8.34705 0
42 1 20.9819 16.0681 0
43 1 8.22283 19.3143 0
44 1 1.84347 18.1154 0
45 1 5.89494 1.67791 0
46 1 5.99526 28.0115 0
47 1 12.916 18.4065 0
48 1 29.6777 26.6226 0
49 1 24.8729 7.08801 0
50 1 13.2318 25.3745 0
51 1 28.106 10.5813 0
52 1 2.33085 9.40469 0
53 1 9.56047 22.2595 0
54 1 7.20549 21.6898 0
55 1 20.5398 5.69542 0
56 1 0.422534 21.9932 0
57 1 19.0694 4.75311 0
58 1 0.284587 9.57907 0
59 1 21.8495 0.535653 0
60 1 2.56695 23.6196 0
61 1 28.9969 8.91935 0
62 1 18.4015 10.9704 0
63 1 7.36992 27.4443 0
64 1 16.5382 15.0396 0
65 1 24.466 17.9499 0
66 1 9.33607 17.6674 0
67 1 8.85862 11.3617 0
68 1 10.9914 18.7718 0
69 1 12.9021 23.7572 0
70 1 14.9957 21.6272 0
71 1 29.0353 19.6909 0
72 1 22.5436 22.8855 0
73 1 2.875 0.69922 0
74 1 9.55245 6.3727 0
75 1 25.7018 18.4035 0
76 1 16.7345 29.6306 0
77 1 3.76877 26.194 0
78 1 0.923952 18.3819 0
79 1 15.2761 12.8542 0
80 1 6.74997 1.74264 0
81 1 5.65897 5.03479 0
82 1 28.2173 3.29841 0
83 1 23.9642 19.6385 0
84 1 26.8494 26.1922 0
85 1 14.7447 11.5809 0
86 1 25.1147 19.8084 0
87 1 5.2755 26.1712 0
88 1 23.8378 23.3644 0
89 1 25.2469 21.7542 0
90 1 15.6161 30.0189 0
91 1 15.0057 5.77917 0
92 1 4.86674 20.4857 0
93 1 26.5653 6.6608 0
94 1 1.26287 13.6166 0
95 1 25.2276 2.49825 0
96 1 28.8077 27.5501 0
97 1 25.4401 28.8585 0
98 1 12.444 0.750007 0
99 1 16.6471 17.6378 0
100 1 18.8687 24.6089 0
101 1 12.9795 26.9368 0
102 1 6.55391 6.2683 0
103 1 23.1471 15.2907 0
104 1 15.5749 3.85553 0
105 1 20.5 20.0091 0
106 1 5.73536 22.4288 0
107 1 11.3451 28.0496 0
108 1 1.41938 11.9586 0
109 1 21.5754 10.4187 0
110 1 20.9022 26.6131 0
111 1 13.5109 5.90672 0
112 1 1.65822 16.6474 0
113 1 7.25481 10.5352 0
114 1 4.95326 13.6033 0
115 1 26.1245 4.87211 0
116 1 4.34897 7.09057 0
117 1 14.6808 9.82323 0
118 1 20.0404 21.8468 0
119 1 25.5883 16.4359 0
120 1 23.4447 25.8891 0
121 1 23.9453 28.6814 0
122 1 22.3889 9.9644 0
123 1 25.5139 8.21246 0
124 1 1.2629 2.11121 0
125 1 17.6462 23.2454 0
126 1 14.0093 18.5487 0
127 1 10.1054 3.3358 0
128 1 25.4586 27.5733 0
129 1 22.0467 17.3937 0
130 1 24.6285 18.9827 0
131 1 23.2805 29.9302 0
132 1 0.472389 21.0442 0
133 1 1.12109 17.5122 0
134 1 19.2307 22.585 0
135 1 2.24332 2.23389 0
136 1 6.25976 0.765196 0
137 1 23.8148 10.7841 0
138 1 23.8843 12.984 0
139 1 3.81914 5.06479 0
140 1 6.68909 3.45079 0
141 1 9.43269 15.019 0
142 1 1.83887 11.0581 0
143 1 20.9003 3.50362 0
144 1 2.15742 15.9735 0
145 1 18.0495 8.12286 0
146 1 11.23 15.3135 0
147 1 25.0019 4.03549 0
148 1 18.4966 21.9034 0
149 1 21.5995 29.5207 0
150 1 9.75833 11.5885 0
151 1 12.2812 15.9307 0
152 1 4.29893 15.5227 0
153 1 5.24955 23.1119 0
154 1 19.5352 29.4114 0
155 1 17.6785 28.5155 0
156 1 21.4609 19.6 0
157 1 23.9171 16.0984 0
158 1 13.5838 11.8301 0
159 1 8.55355 22.202 0
160 1 27.9456 23.7819 0
161 1 19.1017 18.1101 0
162 1 11.4583 20.5751 0
163 1 24.9681 20.983 0
164 1 15.7695 7.95598 0
165 1 10.7558 22.5901 0
166 1 29.5149 11.3999 0
167 1 21.293 15.1929 0
168 1 26.6377 18.8426 0
169 1 3.09731 16.0899 0
170 1 28.8513 18.6792 0
171 1 3.13403 20.42 0
172 1 9.40219 10.2138 0
173 1 11.7799 6.25224 0
174 1 6.57454 9.45927 0
175 1 19.8336 9.62695 0
176 1 19.971 1.49259 0
177 1 19.4815 16.4244 0
178 1 8.44932 15.857 0
179 1 22.8889 21.7982 0
180 1 24.7785 15.8915 0
181 1 5.08961 25.0214 0
182 1 0.180863 1.38788 0
183 1 25.3826 6.28735 0
184 1 0.404369 19.7049 0
185 1 19.3027 8.25651 0
186 1 7.76095 24.6132 0
187 1 26.3494 17.1047 0
188 1 27.6374 27.3271 0
189 1 26.3026 29.6288 0
190 1 25.9627 26.1436 0
191 1 2.55753 3.7144 0
192 1 4.22434 11.0218 0
193 1 22.954 20.8162 0
194 1 24.185 25.3341 0
ITEM: TIMESTEP
2430
ITEM: NUMBER OF ATOMS
194
ITEM: BOX BOUNDS pp pp pp
0.0000000000000000e+00 3.0000000000000000e+01
0.0000000000000000e+00 3.0000000000000000e+01
-5.0000000000000000e-01 5.0000000000000000e-01
ITEM: ATOMS id type x y z
1 1 22.257 7.19019 0
2 1 18.943 1.90272 0
3 1 10.1628 19.0613 0
4 1 5.94595 29.7955 0
5 1 2.37767 21.8566 0
6 1 12.5699 4.34138 0
7 1 9.73301 23.9315 0
8 1 22.0927 21.337 0
9 1 10.385 20.0018 0
10 1 24.7025 14.5225 0
11 1 26.168 7.64156 0
12 1 27.828 14.1241 0
13 1 21.611 22.4684 0
14 1 2.62417 25.55 0
15 1 11.7931 3.46752 0
16 1 16.2014 19.1322 0
17 1 1.19 24.6314 0
18 1 17.8081 1.71177 0
19 1 23.0526 28.3007 0
20 1 7.54345 22.848 0
21 1 19.4033 27.3555 0
22 1 21.7478 2.15905 0
23 1 29.6011 27.9789 0
24 1 19.9776 3.07031 0
25 1 2.29914 6.86376 0
26 1 1.16246 4.40571 0
27 1 3.12491 14.7915 0
28 1 21.8248 23.4997 0
29 1 12.7537 7.0137 0
30 1 25.2008 26.7488 0
31 1 13.9729 28.8016 0
32 1 29.2223 0.252716 0
33 1 6.29007 24.1565 0
34 1 5.79865 14.8371 0
35 1 20.1038 0.00259307 0
36 1 10.7057 16.6339 0
37 1 19.9636 14.1759 0
38 1 28.0261 1.82423 0
39 1 25.9284 10.7621 0
40 1 14.5541 7.31737 0
41 1 3.91154 8.35573 0
42 1 21.2172 16.5584 0
43 1 8.54252 19.0812 0
44 1 1.95066 17.9628 0
45 1 5.71026 1.95289 0
46 1 6.38714 27.9064 0
47 1 13.1735 18.2226 0
48 1 29.472 26.8482 0
49 1 24.6882 7.29347 0
50 1 13.4303 26.0459 0
51 1 27.8605 10.3999 0
52 1 2.10824 9.56849 0
53 1 9.92576 22.3598 0
54 1 6.90555 21.8209 0
55 1 20.8369 5.28635 0
56 1 0.741381 21.8039 0
57 1 19.1813 4.70447 0
58 1 0.315288 9.58336 0
59 1 21.7814 0.642577 0
60 1 2.47117 23.4373 0
61 1 29.3107 8.84522 0
62 1 18.0627 10.9511 0
63 1 7.12547 27.4927 0
64 1 16.4096 14.9849 0
65 1 24.2397 17.6289 0
66 1 9.41852 17.3771 0
67 1 9.04504 10.785 0
68 1 11.2412 18.1493 0
69 1 12.8734 23.4464 0
70 1 15.1831 21.7841 0
71 1 29.4933 19.7631 0
72 1 22.5751 22.7939 0
73 1 2.64043 0.40773 0
74 1 9.28491 6.30039 0
75 1 25.3379 18.1684 0
76 1 16.7982 30.0425 0
77 1 3.46404 26.0045 0
78 1 0.603821 18.5791 0
79 1 15.6206 12.6306 0
80 1 6.85908 1.86028 0
81 1 5.647 5.53202 0
82 1 28.0937 3.43055 0
83 1 24.1987 19.4289 0
84 1 27.1265 26.2365 0
85 1 14.8118 12.0403 0
86 1 25.8125 19.8371 0
87 1 4.89972 26.573 0
88 1 23.9562 23.2667 0
89 1 25.3337 22.1689 0
90 1 15.7487 0.162083 0
91 1 15.3754 5.72788 0
92 1 4.95478 20.5801 0
93 1 26.7568 6.65273 0
94 1 1.23878 14.0072 0
95 1 25.2057 2.3604 0
96 1 28.874 27.4544 0
97 1 25.4914 28.9073 0
98 1 12.0922 0.564036 0
99 1 16.9178 17.4287 0
100 1 18.9807 24.7784 0
101 1 13.2012 27.1241 0
102 1 6.42349 5.75391 0
103 1 22.511 15.3713 0
104 1 15.5749 3.73373 0
105 1 20.3593 19.8926 0
106 1 5.79628 22.1447 0
107 1 11.4319 27.9231 0
108 1 1.34899 11.9997 0
109 1 21.6754 10.628 0
110 1 20.7154 26.7593 0
111 1 13.2426 5.86548 0
112 1 1.79063 16.7847 0
113 1 6.96681 10.6898 0
114 1 4.48599 14.0463 0
115 1 26.3134 4.66683 0
116 1 4.39132 7.21529 0
117 1 14.8405 10.0106 0
118 1 19.8409 22.1048 0
119 1 25.5122 16.0869 0
120 1 23.7524 25.7772 0
121 1 24.0968 28.639 0
122 1 22.3241 9.67351 0
123 1 25.3713 7.96849 0
124 1 1.48968 1.8869 0
125 1 17.403 23.5559 0
126 1 14.2652 18.7819 0
127 1 10.011 3.16973 0
128 1 25.3431 27.9378 0
129 1 21.8604 17.6702 0
130 1 25.0826 19.0349 0
131 1 23.2281 29.845 0
132 1 29.7744 20.6681 0
133 1 0.897387 17.3849 0
134 1 19.163 23.259 0
135 1 2.32284 2.54668 0
136 1 6.05943 0.91827 0
137 1 23.7277 10.9942 0
138 1 23.9847 13.0391 0
139 1 3.82382 4.96181 0
140 1 7.15714 3.15212 0
141 1 9.18489 14.7974 0
142 1 1.92764 10.7144 0
143 1 20.8373 3.3331 0
144 1 2.00962 15.5372 0
145 1 17.9234 8.20581 0
146 1 11.4025 15.2302 0
147 1 24.712 4.04381 0
148 1 18.6735 21.9787 0
149 1 21.7873 29.7181 0
150 1 9.67074 11.7935 0
151 1 12.2967 16.1163 0
152 1 4.46423 15.3963 0
153 1 5.3954 23.3015 0
154 1 19.3347 29.5299 0
155 1 17.5286 28.3416 0
156 1 21.5353 19.4319 0
157 1 23.716 15.8926 0
158 1 13.6805 12.0853 0
159 1 8.13984 22.2168 0
160 1 28.2494 23.8911 0
161 1 19.1801 18.0994 0
162 1 11.574 20.3453 0
163 1 25.0653 20.9346 0
164 1 15.7881 8.12013 0
165 1 10.9695 22.4205 0
166 1 29.1942 11.2844 0
167 1 20.9082 15.3592 0
168 1 26.5741 18.7892 0
169 1 3.12876 16.3106 0
170 1 28.3034 18.2988 0
171 1 3.16288 20.8131 0
172 1 9.56308 10.1445 0
173 1 11.9195 6.35684 0
174 1 6.77371 9.74286 0
175 1 19.4423 9.82075 0
176 1 19.9929 0.949576 0
177 1 18.9747 16.769 0
178 1 8.33249 15.7242 0
179 1 22.9821 21.9426 0
180 1 24.7235 15.5489 0
181 1 5.02548 25.4695 0
182 1 -0.0128211 1.41743 0
183 1 25.2219 6.38676 0
184 1 0.252927 19.4646 0
185 1 19.4481 7.97593 0
186 1 8.12572 24.1304 0
187 1 26.4863 16.9532 0
188 1 28.1248 27.1194 0
189 1 26.3568 29.943 0
190 1 25.9353 25.9415 0
191 1 2.2187 3.9623 0
192 1 4.48014 11.5835 0
193 1 23.3104 20.4214 0
194 1 24.309 24.8923 0
ITEM: TIMESTEP
2445
ITEM: NUMBER OF ATOMS
194
ITEM: BOX BOUNDS pp pp pp
0.0000000000000000e+00 3.0000000000000000e+01
0.0000000000000000e+00 3.0000000000000000e+01
-5.0000000000000000e-01 5.0000000000000000e-01
ITEM: ATOMS id type x y z
1 1 21.8749 7.40022 0
2 1 18.9805 1.74778 0
3 1 9.98614 18.8251 0
4 1 5.77085 0.357607 0
5 1 1.90009 21.9837 0
6 1 12.6755 4.54245 0
7 1 10.1065 23.7183 0
8 1 21.7678 21.5032 0
9 1 9.91186 20.0343 0
10 1 24.79 14.2979 0
11 1 26.0925 7.43949 0
12 1 27.5541 14.244 0
13 1 21.7405 22.4731 0
14 1 2.34477 25.5505 0
15 1 11.558 3.65828 0
16 1 16.6418 19.3331 0
17 1 1.34035 24.4967 0
18 1 17.7834 1.42596 0
19 1 23.1121 28.5396 0
20 1 7.3905 23.3061 0
21 1 19.5085 27.047 0
22 1 21.9556 2.36493 0
23 1 29.8229 28.1709 0
24 1 19.9339 2.99021 0
25 1 1.94899 6.70032 0
26 1 1.08484 4.41041 0
27 1 3.123 14.7175 0
28 1 21.874 23.3906 0
29 1 12.5907 7.03659 0
30 1 25.034 26.792 0
31 1 14.1395 29.1462 0
32 1 29.0671 0.394409 0
33 1 6.46932 24.2556 0
34 1 5.91051 14.799 0
35 1 20.2439 29.2982 0
36 1 11.0831 16.3 0
37 1 20.1083 13.4792 0
38 1 28.0323 1.9702 0
39 1 26.0765 10.8925 0
40 1 14.6766 7.38624 0
41 1 4.09848 8.36044 0
42 1 21.4263 17.1924 0
43 1 8.86486 18.8478 0
44 1 2.061 17.8249 0
45 1 5.45135 2.23971 0
46 1 6.3412 28.0669 0
47 1 13.4341 18.0405 0
48 1 29.5711 26.7363 0
49 1 24.22 7.52698 0
50 1 13.6637 26.5889 0
51 1 27.6162 10.2193 0
52 1 1.88179 9.61896 0
53 1 10.2601 22.4635 0
54 1 6.68044 21.9494 0
55 1 21.1332 4.8764 0
56 1 1.05999 21.6159 0
57 1 19.2946 4.65529 0
58 1 0.343543 9.58568 0
59 1 21.717 0.89603 0
60 1 2.37439 23.254 0
61 1 29.6278 8.77394 0
62 1 17.7246 10.9313 0
63 1 7.31826 27.2759 0
64 1 16.2811 14.9302 0
65 1 24.0189 17.3113 0
66 1 9.50366 17.0863 0
67 1 8.90808 10.5646 0
68 1 11.4993 17.5193 0
69 1 12.8444 23.1357 0
70 1 15.3706 21.941 0
71 1 29.3461 19.538 0
72 1 22.6279 22.8151 0
73 1 2.4054 0.117063 0
74 1 9.01739 6.22808 0
75 1 25.1126 17.6728 0
76 1 16.8794 0.453651 0
77 1 3.27651 25.8706 0
78 1 0.391288 18.2844 0
79 1 15.9965 12.4238 0
80 1 7.03643 1.9797 0
81 1 5.14031 5.8428 0
82 1 27.9699 3.56113 0
83 1 24.3552 19.2585 0
84 1 27.5185 26.2536 0
85 1 14.8466 12.4827 0
86 1 26.5164 19.8762 0
87 1 4.52213 26.9751 0
88 1 24.0718 23.1676 0
89 1 25.4349 22.6322 0
90 1 15.8645 0.305808 0
91 1 15.7443 5.67713 0
92 1 5.04267 20.6756 0
93 1 26.9445 6.64428 0
94 1 1.21542 14.3983 0
95 1 25.1836 2.22352 0
96 1 28.8663 27.7223 0
97 1 25.5721 29.0813 0
98 1 11.7404 0.378064 0
99 1 17.1888 17.2203 0
100 1 19.0926 24.9454 0
101 1 13.3878 27.4407 0
102 1 6.7869 5.42603 0
103 1 21.8767 15.4543 0
104 1 15.5748 3.61232 0
105 1 20.2222 19.7748 0
106 1 5.81312 21.8157 0
107 1 11.5191 27.7963 0
108 1 1.2795 12.0387 0
109 1 21.7628 10.847 0
110 1 20.526 26.9066 0
111 1 12.9691 5.82942 0
112 1 1.90656 16.9482 0
113 1 6.68667 10.9336 0
114 1 4.01859 14.4913 0
115 1 26.5011 4.46157 0
116 1 4.43186 7.34343 0
117 1 15.0002 10.1982 0
118 1 19.6588 22.3719 0
119 1 25.5236 15.7982 0
120 1 24.0027 25.7309 0
121 1 24.2554 28.5988 0
122 1 22.2723 9.37314 0
123 1 25.122 7.98481 0
124 1 1.68592 1.64848 0
125 1 17.1612 23.8661 0
126 1 14.5179 19.0133 0
127 1 9.91738 3.0038 0
128 1 25.1965 28.1937 0
129 1 21.6851 17.9758 0
130 1 25.4749 19.2904 0
131 1 23.1726 29.7557 0
132 1 29.1423 20.7604 0
133 1 0.666518 17.2543 0
134 1 19.0958 23.93 0
135 1 2.43103 2.8758 0
136 1 5.89952 1.35007 0
137 1 23.6401 11.2042 0
138 1 24.0858 13.0953 0
139 1 3.82866 4.85896 0
140 1 7.62398 2.84968 0
141 1 8.93375 14.5799 0
142 1 2.01809 10.486 0
143 1 20.9706 3.21854 0
144 1 1.88894 15.0539 0
145 1 17.7995 8.28865 0
146 1 11.5775 15.1525 0
147 1 24.4235 4.05179 0
148 1 18.8324 22.0509 0
149 1 21.9735 29.7708 0
150 1 9.61888 12.0202 0
151 1 12.3067 16.299 0
152 1 4.62948 15.2684 0
153 1 5.51882 23.541 0
154 1 18.9976 29.5831 0
155 1 17.3787 28.1684 0
156 1 21.6066 19.2646 0
157 1 23.4595 15.6996 0
158 1 13.7783 12.3402 0
159 1 7.98932 21.9966 0
160 1 28.5532 24.0003 0
161 1 19.2578 18.085 0
162 1 11.74 20.1491 0
163 1 25.1481 20.8327 0
164 1 15.8043 8.28286 0
165 1 11.2125 22.2497 0
166 1 28.8724 11.1675 0
167 1 20.5392 15.3514 0
168 1 26.5036 18.737 0
169 1 3.15831 16.5282 0
170 1 27.7552 17.9196 0
171 1 3.18978 21.21 0
172 1 10.0112 9.69723 0
173 1 11.9695 6.37427 0
174 1 6.96547 9.9372 0
175 1 19.0502 10.0142 0
176 1 19.9653 0.766686 0
177 1 18.4687 17.1175 0
178 1 8.21955 15.5878 0
179 1 23.2367 22.0554 0
180 1 24.6312 15.2061 0
181 1 4.96078 25.9166 0
182 1 29.793 1.44459 0
183 1 25.1679 6.32069 0
184 1 0.533283 19.5483 0
185 1 19.5912 7.69645 0
186 1 8.48993 23.6442 0
187 1 26.6192 16.8011 0
188 1 28.1566 26.7445 0
189 1 26.4082 0.253795 0
190 1 25.7481 25.7021 0
191 1 1.92087 4.19425 0
192 1 4.73594 12.1452 0
193 1 23.8194 19.9357 0
194 1 24.4918 24.3847 0
ITEM: TIMESTEP
2460
ITEM: NUMBER OF ATOMS
194
ITEM: BOX BOUNDS pp pp pp
0.0000000000000000e+00 3.0000000000000000e+01
0.0000000000000000e+00 3.0000000000000000e+01
-5.0000000000000000e-01 5.0000000000000000e-01
ITEM: ATOMS id type x y z
1 1 21.4928 7.6107 0
2 1 19.0171 1.59011 0
3 1 9.9423 18.5825 0
4 1 5.54697 0.505098 0
5 1 1.6935 22.297 0
6 1 12.7791 4.74535 0
7 1 10.479 23.5054 0
8 1 21.4307 21.5269 0
9 1 9.43964 20.0665 0
10 1 24.8982 13.9128 0
11 1 26.0416 7.22252 0
12 1 27.2802 14.364 0
13 1 21.7655 22.4426 0
14 1 1.96971 25.5104 0
15 1 11.3247 3.85093 0
16 1 17.0819 19.5337 0
17 1 1.49389 24.3631 0
18 1 17.7786 1.14812 0
19 1 23.173 28.7724 0
20 1 7.24223 23.7588 0
21 1 19.5253 26.7317 0
22 1 22.1591 2.57125 0
23 1 0.127689 28.4148 0
24 1 19.8303 2.89369 0
25 1 1.59887 6.53676 0
26 1 0.73152 4.48797 0
27 1 2.79575 14.6842 0
28 1 21.8685 23.4844 0
29 1 12.6238 7.24615 0
30 1 24.868 26.8336 0
31 1 14.3062 29.4903 0
32 1 28.9145 0.540611 0
33 1 6.63833 24.3585 0
34 1 6.01781 14.7622 0
35 1 20.4119 28.6038 0
36 1 11.4594 15.9675 0
37 1 20.2531 12.7831 0
38 1 28.0395 2.11716 0
39 1 26.2257 11.0224 0
40 1 14.8015 7.45662 0
41 1 4.27977 8.38557 0
42 1 21.5049 17.4241 0
43 1 9.05526 18.6197 0
44 1 2.21133 17.9195 0
45 1 5.09351 2.65828 0
46 1 6.19763 28.29 0
47 1 13.6966 17.8601 0
48 1 29.7346 26.5456 0
49 1 23.6014 7.65525 0
50 1 13.9915 26.8113 0
51 1 27.3723 10.0404 0
52 1 1.62202 9.30649 0
53 1 10.5306 22.5788 0
54 1 6.73573 22.1019 0
55 1 21.4285 4.46467 0
56 1 1.11068 21.2426 0
57 1 19.409 4.60524 0
58 1 0.380998 9.59782 0
59 1 21.6518 1.16217 0
60 1 2.2756 23.0687 0
61 1 29.9386 8.69333 0
62 1 17.3877 10.9106 0
63 1 7.60839 26.9965 0
64 1 16.1526 14.8756 0
65 1 23.8005 16.9937 0
66 1 9.58978 16.796 0
67 1 8.76284 10.3557 0
68 1 11.7211 16.9197 0
69 1 12.8147 22.8245 0
70 1 15.5581 22.0979 0
71 1 29.167 19.0973 0
72 1 22.7937 22.9038 0
73 1 2.16988 29.8275 0
74 1 8.74976 6.15572 0
75 1 24.887 17.1767 0
76 1 16.9731 0.860814 0
77 1 3.18479 25.7756 0
78 1 0.186396 17.8666 0
79 1 16.3831 12.2212 0
80 1 7.19168 2.08093 0
81 1 4.6228 6.1524 0
82 1 27.845 3.69059 0
83 1 24.7312 18.7891 0
84 1 27.43 25.8949 0
85 1 14.8788 12.9219 0
86 1 27.2155 19.9114 0
87 1 4.14478 27.3746 0
88 1 24.1844 23.0646 0
89 1 25.5324 23.096 0
90 1 15.9533 0.446266 0
91 1 16.113 5.62642 0
92 1 5.12519 20.7633 0
93 1 27.1283 6.63821 0
94 1 0.886054 14.5948 0
95 1 25.1614 2.08695 0
96 1 28.7216 28.0236 0
97 1 25.6957 29.3904 0
98 1 11.3886 0.192093 0
99 1 17.3544 16.9726 0
100 1 19.2261 25.3375 0
101 1 13.4796 28.0786 0
102 1 7.15956 5.10003 0
103 1 21.24 15.5383 0
104 1 15.5747 3.49123 0
105 1 20.088 19.6555 0
106 1 5.56045 21.4753 0
107 1 11.6069 27.6695 0
108 1 1.21056 12.0766 0
109 1 21.8517 11.0639 0
110 1 20.425 27.0604 0
111 1 12.6979 5.79257 0
112 1 1.98017 16.8765 0
113 1 6.40248 11.2321 0
114 1 3.87954 14.8626 0
115 1 26.6897 4.25588 0
116 1 4.47853 7.44958 0
117 1 15.16 10.3858 0
118 1 19.6767 22.7227 0
119 1 25.5509 15.5212 0
120 1 24.2572 25.6839 0
121 1 24.2813 28.6174 0
122 1 22.2197 9.07465 0
123 1 25.001 8.11273 0
124 1 1.8837 1.41142 0
125 1 16.9202 24.1764 0
126 1 14.7685 19.2426 0
127 1 9.82439 2.83819 0
128 1 25.138 28.2559 0
129 1 21.6398 18.4165 0
130 1 25.8802 19.5486 0
131 1 23.1179 29.6717 0
132 1 28.5313 21.0732 0
133 1 0.475129 17.0147 0
134 1 19.0068 24.3738 0
135 1 2.53608 3.2062 0
136 1 5.8942 2.067 0
137 1 23.5521 11.4144 0
138 1 24.1885 13.1542 0
139 1 3.83416 4.75683 0
140 1 8.10627 2.56307 0
141 1 8.67954 14.3667 0
142 1 2.13827 10.6216 0
143 1 21.1662 3.11799 0
144 1 2.04266 14.77 0
145 1 17.676 8.37151 0
146 1 11.7549 15.0778 0
147 1 24.1356 4.05952 0
148 1 18.7914 22.0418 0
149 1 22.1599 29.8121 0
150 1 9.56611 12.245 0
151 1 12.3507 16.4481 0
152 1 4.82795 15.1699 0
153 1 5.64709 23.7816 0
154 1 18.6342 29.6302 0
155 1 17.2291 27.9956 0
156 1 21.6758 19.3646 0
157 1 23.2065 15.5052 0
158 1 13.868 12.5937 0
159 1 7.83711 21.7744 0
160 1 28.8569 24.1096 0
161 1 19.3326 18.0669 0
162 1 11.9048 19.9528 0
163 1 25.2308 20.7271 0
164 1 15.8184 8.44384 0
165 1 11.5191 22.0672 0
166 1 28.5492 11.0492 0
167 1 20.1742 15.344 0
168 1 26.4347 18.6832 0
169 1 3.18248 16.7462 0
170 1 27.2038 17.5408 0
171 1 3.21463 21.6085 0
172 1 10.4679 9.24021 0
173 1 11.8208 6.20193 0
174 1 7.16172 10.0771 0
175 1 18.6565 10.2082 0
176 1 19.9348 0.583348 0
177 1 18.0712 17.5093 0
178 1 8.10992 15.4473 0
179 1 23.5549 22.0789 0
180 1 24.4974 15.0141 0
181 1 4.89396 26.3653 0
182 1 29.5958 1.46793 0
183 1 25.1154 6.26035 0
184 1 0.78535 19.8591 0
185 1 19.7337 7.4173 0
186 1 8.85242 23.156 0
187 1 26.7504 16.6494 0
188 1 28.6575 26.7387 0
189 1 26.4575 0.561961 0
190 1 25.5577 25.4662 0
191 1 1.90067 4.34981 0
192 1 4.99185 12.707 0
193 1 24.0999 19.7528 0
194 1 24.6748 23.879 0
ITEM: TIMESTEP
2475
ITEM: NUMBER OF ATOMS
194
ITEM: BOX BOUNDS pp pp pp
0.0000000000000000e+00 3.0000000000000000e+01
0.0000000000000000e+00 3.0000000000000000e+01
-5.0000000000000000e-01 5.0000000000000000e-01
ITEM: ATOMS id type x y z
1 1 21.1107 7.82236 0
2 1 19.0528 1.42906 0
3 1 10.2618 18.328 0
4 1 5.3236 0.654724 0
5 1 1.43012 22.5391 0
6 1 12.8906 4.91019 0
7 1 10.8449 23.5024 0
8 1 21.0636 21.4123 0
9 1 8.96727 20.0944 0
10 1 25.0704 13.5675 0
11 1 25.9888 7.00238 0
12 1 27.0057 14.4843 0
13 1 21.8131 22.5207 0
14 1 1.59459 25.4657 0
15 1 11.092 4.04406 0
16 1 17.5221 19.734 0
17 1 1.6508 24.2318 0
18 1 18.0477 0.956759 0
19 1 23.2265 28.7755 0
20 1 7.37449 23.9331 0
21 1 19.4509 26.6496 0
22 1 22.3628 2.77568 0
23 1 0.429454 28.6572 0
24 1 19.7293 2.79675 0
25 1 1.24871 6.37281 0
26 1 0.35212 4.57125 0
27 1 3.1005 14.5653 0
28 1 21.8522 23.6149 0
29 1 12.6586 7.4536 0
30 1 24.7014 26.8726 0
31 1 14.4725 29.8333 0
32 1 28.7616 0.687756 0
33 1 6.52638 24.7378 0
34 1 6.12035 14.7268 0
35 1 20.585 27.9516 0
36 1 11.751 15.772 0
37 1 20.3981 12.0871 0
38 1 28.0478 2.26464 0
39 1 26.3768 11.1507 0
40 1 14.9289 7.52927 0
41 1 4.44286 8.49858 0
42 1 21.557 17.4612 0
43 1 8.88274 18.4068 0
44 1 2.37644 18.0842 0
45 1 4.6225 3.19906 0
46 1 6.05444 28.5124 0
47 1 13.9593 17.6801 0
48 1 29.935 26.343 0
49 1 22.9847 7.78456 0
50 1 14.3197 27.0321 0
51 1 27.1282 9.86459 0
52 1 1.35653 8.99183 0
53 1 10.7977 22.4862 0
54 1 6.79921 22.2561 0
55 1 21.7228 4.04857 0
56 1 1.07151 20.8776 0
57 1 19.5242 4.55416 0
58 1 0.439402 9.64263 0
59 1 21.588 1.42761 0
60 1 2.33428 23.0384 0
61 1 0.234125 8.5797 0
62 1 17.0525 10.89 0
63 1 7.89785 26.7177 0
64 1 16.0241 14.8209 0
65 1 23.5786 16.674 0
66 1 9.67629 16.5067 0
67 1 8.61631 10.1468 0
68 1 11.4621 16.7458 0
69 1 12.7823 22.5119 0
70 1 15.7456 22.2548 0
71 1 28.99 18.6561 0
72 1 22.9794 22.9892 0
73 1 1.93397 29.5396 0
74 1 8.48163 6.08298 0
75 1 24.6654 16.6814 0
76 1 16.8097 1.18677 0
77 1 3.09218 25.6811 0
78 1 -0.10289 17.7117 0
79 1 16.7688 12.0176 0
80 1 7.32042 2.16648 0
81 1 4.10411 6.4646 0
82 1 27.7259 3.81674 0
83 1 25.1719 18.2384 0
84 1 27.3315 25.5289 0
85 1 14.9245 13.3641 0
86 1 27.9102 19.9436 0
87 1 3.77014 27.7695 0
88 1 24.2106 22.8485 0
89 1 25.7523 23.5175 0
90 1 16.0305 0.58144 0
91 1 16.4815 5.57567 0
92 1 4.96706 20.4492 0
93 1 27.3072 6.63439 0
94 1 0.408912 14.7115 0
95 1 25.1394 1.95024 0
96 1 28.5799 28.3203 0
97 1 25.8191 29.7006 0
98 1 11.0369 0.00612116 0
99 1 17.1999 16.5694 0
100 1 19.3549 25.7195 0
101 1 13.5714 28.7193 0
102 1 7.53264 4.77444 0
103 1 20.6361 15.6316 0
104 1 15.5747 3.37034 0
105 1 19.9552 19.5348 0
106 1 5.54273 21.5365 0
107 1 11.6952 27.5427 0
108 1 1.14219 12.1136 0
109 1 21.9417 11.2807 0
110 1 20.4473 27.1993 0
111 1 12.5027 5.75895 0
112 1 2.04158 16.7321 0
113 1 6.11982 11.5282 0
114 1 3.88053 15.2105 0
115 1 26.8727 4.05172 0
116 1 4.54383 7.46384 0
117 1 15.3203 10.5733 0
118 1 19.7325 23.0941 0
119 1 25.576 15.2439 0
120 1 24.5147 25.6407 0
121 1 24.1137 28.7272 0
122 1 22.1666 8.77469 0
123 1 24.8807 8.23663 0
124 1 2.08187 1.17341 0
125 1 16.6796 24.4866 0
126 1 15.0184 19.4712 0
127 1 9.73061 2.67271 0
128 1 25.297 28.224 0
129 1 21.6153 18.4051 0
130 1 26.2721 19.8256 0
131 1 23.1699 29.8032 0
132 1 27.9198 21.3842 0
133 1 0.37078 16.514 0
134 1 18.8848 24.5674 0
135 1 2.63865 3.54059 0
136 1 6.00697 2.6598 0
137 1 23.4632 11.625 0
138 1 24.229 13.166 0
139 1 3.83984 4.65554 0
140 1 8.611 2.29224 0
141 1 8.42291 14.1581 0
142 1 2.25775 10.7607 0
143 1 21.3574 3.02022 0
144 1 1.53235 14.6592 0
145 1 17.5522 8.4546 0
146 1 11.9923 14.8136 0
147 1 23.8477 4.06712 0
148 1 18.7127 22.0129 0
149 1 22.2231 29.8725 0
150 1 9.51311 12.4696 0
151 1 12.8998 16.2247 0
152 1 5.07092 15.087 0
153 1 5.77754 24.0216 0
154 1 18.2718 29.6797 0
155 1 17.0797 27.8229 0
156 1 21.7483 20.1116 0
157 1 22.9577 15.3109 0
158 1 13.9462 12.8435 0
159 1 7.68285 21.554 0
160 1 29.1606 24.219 0
161 1 19.4042 18.0478 0
162 1 12.0693 19.7567 0
163 1 25.3138 20.6157 0
164 1 15.8304 8.60266 0
165 1 11.8361 21.8839 0
166 1 28.2243 10.9295 0
167 1 19.7771 15.3277 0
168 1 26.3784 18.6127 0
169 1 3.20032 16.9657 0
170 1 26.6909 17.3433 0
171 1 3.23767 22.0085 0
172 1 10.9241 8.7835 0
173 1 11.5855 6.06565 0
174 1 7.35813 10.2199 0
175 1 18.2599 10.4035 0
176 1 19.9009 0.402066 0
177 1 17.9977 18.0587 0
178 1 8.00284 15.3023 0
179 1 23.8669 22.0809 0
180 1 24.3608 14.8326 0
181 1 4.82355 26.8179 0
182 1 29.3975 1.49146 0
183 1 25.0661 6.20424 0
184 1 1.02601 20.078 0
185 1 19.8772 7.13845 0
186 1 9.21462 22.6673 0
187 1 26.839 16.3192 0
188 1 29.1311 26.7581 0
189 1 26.5047 0.8674 0
190 1 25.3658 25.2312 0
191 1 1.90957 4.4958 0
192 1 5.24803 13.2689 0
193 1 24.3232 19.6533 0
194 1 24.8262 23.5473 0
ITEM: TIMESTEP
2490
ITEM: NUMBER OF ATOMS
194
ITEM: BOX BOUNDS pp pp pp
0.0000000000000000e+00 3.0000000000000000e+01
0.0000000000000000e+00 3.0000000000000000e+01
-5.0000000000000000e-01 5.0000000000000000e-01
ITEM: ATOMS id type x y z
1 1 20.7289 8.03429 0
2 1 19.1073 1.27497 0
3 1 10.5832 18.0728 0
4 1 5.10041 0.804588 0
5 1 1.03925 22.6737 0
6 1 13.05 4.96185 0
7 1 11.2109 23.625 0
8 1 20.6993 21.2972 0
9 1 8.49458 20.1211 0
10 1 25.3744 13.3043 0
11 1 25.9353 6.77911 0
12 1 26.7293 14.6065 0
13 1 21.8638 22.5935 0
14 1 1.22126 25.4169 0
15 1 10.8596 4.23751 0
16 1 17.9625 19.9331 0
17 1 1.80962 24.1012 0
18 1 18.3376 0.758904 0
19 1 23.0714 28.6888 0
20 1 7.56669 24.0462 0
21 1 19.4482 27.312 0
22 1 22.5893 2.97257 0
23 1 0.731675 28.8999 0
24 1 19.629 2.69866 0
25 1 0.898472 6.20818 0
26 1 -0.024688 4.65472 0
27 1 3.41905 14.427 0
28 1 21.8401 23.7483 0
29 1 12.6924 7.65897 0
30 1 24.5352 26.9084 0
31 1 14.6377 0.174275 0
32 1 28.5844 0.806537 0
33 1 6.36744 25.1933 0
34 1 6.22989 14.6876 0
35 1 20.8916 28.0525 0
36 1 12.01 15.6827 0
37 1 20.5442 11.3906 0
38 1 28.0576 2.41202 0
39 1 26.5301 11.2767 0
40 1 15.0584 7.60473 0
41 1 4.60108 8.6458 0
42 1 21.5912 17.2914 0
43 1 8.7086 18.1949 0
44 1 2.54279 18.2423 0
45 1 4.15315 3.73841 0
46 1 5.91094 28.7347 0
47 1 14.2217 17.4997 0
48 1 0.291095 26.0643 0
49 1 22.4267 7.81643 0
50 1 14.6475 27.2539 0
51 1 26.8845 9.69257 0
52 1 1.21124 8.72476 0
53 1 11.0673 22.2649 0
54 1 6.86102 22.4089 0
55 1 22.0292 3.66057 0
56 1 1.08945 21.1992 0
57 1 19.6397 4.50207 0
58 1 0.502778 9.69761 0
59 1 21.525 1.69535 0
60 1 2.52081 23.1157 0
61 1 0.404995 8.40893 0
62 1 16.7189 10.8633 0
63 1 8.18719 26.4388 0
64 1 15.8951 14.7657 0
65 1 23.3501 16.3516 0
66 1 9.7637 16.2181 0
67 1 8.46775 9.93745 0
68 1 11.1785 16.621 0
69 1 12.7839 22.2257 0
70 1 15.9332 22.4119 0
71 1 28.8149 18.2134 0
72 1 23.1647 23.0713 0
73 1 1.6969 29.2523 0
74 1 8.21263 6.00893 0
75 1 24.4507 16.1859 0
76 1 16.6535 1.54153 0
77 1 2.99707 25.5864 0
78 1 29.6047 17.5623 0
79 1 17.1559 11.8175 0
80 1 7.44887 2.25328 0
81 1 3.58429 6.775 0
82 1 27.8811 3.8793 0
83 1 25.5959 17.7016 0
84 1 27.233 25.1627 0
85 1 14.9734 13.8079 0
86 1 28.6039 19.9769 0
87 1 3.39805 28.1619 0
88 1 24.2168 22.8074 0
89 1 26.2509 23.8758 0
90 1 16.0652 0.680854 0
91 1 16.8499 5.52485 0
92 1 4.76567 20.0611 0
93 1 27.482 6.63171 0
94 1 -0.0679875 14.8297 0
95 1 25.1183 1.81283 0
96 1 28.4395 28.6156 0
97 1 25.9434 30.0124 0
98 1 10.6851 29.8201 0
99 1 17.0447 16.166 0
100 1 19.3895 25.3679 0
101 1 13.6656 29.3617 0
102 1 7.90654 4.45008 0
103 1 20.1861 15.7792 0
104 1 15.5748 3.2495 0
105 1 19.8227 19.4125 0
106 1 5.57111 21.6735 0
107 1 11.7837 27.4161 0
108 1 1.07445 12.1499 0
109 1 22.0326 11.4983 0
110 1 20.3675 26.5839 0
111 1 12.3499 5.80699 0
112 1 2.10703 16.5916 0
113 1 5.83762 11.8239 0
114 1 3.90331 15.5739 0
115 1 26.7819 3.909 0
116 1 4.61496 7.4449 0
117 1 15.4822 10.761 0
118 1 19.7862 23.4643 0
119 1 25.5983 14.9652 0
120 1 24.6379 25.6883 0
121 1 24.1614 28.8298 0
122 1 22.0524 8.57027 0
123 1 24.7608 8.35885 0
124 1 2.27994 0.934046 0
125 1 16.439 24.7967 0
126 1 15.2683 19.6994 0
127 1 9.69986 2.54768 0
128 1 25.455 28.192 0
129 1 21.6081 18.6016 0
130 1 26.6601 20.1042 0
131 1 23.3574 30.0169 0
132 1 27.308 21.6925 0
133 1 0.268799 16.0091 0
134 1 18.7544 24.75 0
135 1 2.74034 3.87959 0
136 1 6.12101 3.25199 0
137 1 23.3728 11.8363 0
138 1 24.1363 13.1002 0
139 1 3.84374 4.55449 0
140 1 9.04989 1.98119 0
141 1 8.16459 13.9541 0
142 1 2.37612 10.8999 0
143 1 21.5117 2.89829 0
144 1 0.986062 14.5523 0
145 1 17.4274 8.53814 0
146 1 12.2703 14.4085 0
147 1 23.5592 4.0743 0
148 1 18.6362 21.9861 0
149 1 22.1446 29.9482 0
150 1 9.45984 12.6944 0
151 1 13.4647 15.9879 0
152 1 5.30659 15.0064 0
153 1 5.89519 24.2452 0
154 1 17.9094 29.7338 0
155 1 16.9303 27.6503 0
156 1 21.8184 20.8597 0
157 1 22.7127 15.1183 0
158 1 14.022 13.0925 0
159 1 7.5282 21.3346 0
160 1 29.4642 24.3287 0
161 1 19.4733 18.0305 0
162 1 12.2336 19.5607 0
163 1 25.3978 20.4982 0
164 1 15.8411 8.7589 0
165 1 12.1141 21.6769 0
166 1 27.897 10.8082 0
167 1 19.2264 15.2576 0
168 1 26.3207 18.5383 0
169 1 3.21154 17.1867 0
170 1 26.2161 17.2966 0
171 1 3.2581 22.4109 0
172 1 11.3806 8.32661 0
173 1 11.2601 5.96249 0
174 1 7.55595 10.3638 0
175 1 17.8584 10.6006 0
176 1 19.8631 0.224411 0
177 1 17.928 18.6094 0
178 1 7.89738 15.1525 0
179 1 24.0173 21.7093 0
180 1 24.2276 14.6506 0
181 1 4.75046 27.273 0
182 1 29.2211 1.54528 0
183 1 25.0203 6.15157 0
184 1 1.21014 19.612 0
185 1 20.0235 6.8614 0
186 1 9.57856 22.1784 0
187 1 26.906 15.8287 0
188 1 29.4492 26.8549 0
189 1 26.5493 1.16988 0
190 1 25.3092 24.9093 0
191 1 1.91915 4.63875 0
192 1 5.50508 13.8331 0
193 1 24.551 19.555 0
194 1 24.8718 23.4831 0
ITEM: TIMESTEP
2505
ITEM: NUMBER OF ATOMS
194
ITEM: BOX BOUNDS pp pp pp
0.0000000000000000e+00 3.0000000000000000e+01
0.0000000000000000e+00 3.0000000000000000e+01
-5.0000000000000000e-01 5.0000000000000000e-01
ITEM: ATOMS id type x y z
1 1 20.3492 8.24436 0
2 1 19.2785 1.197 0
3 1 10.9044 17.8155 0
4 1 4.87731 0.954299 0
5 1 0.651578 22.8076 0
6 1 13.2193 4.9965 0
7 1 11.5766 23.7438 0
8 1 20.3398 21.1812 0
9 1 8.02051 20.1493 0
10 1 25.6801 13.0448 0
11 1 25.8873 6.55797 0
12 1 26.4588 14.6954 0
13 1 21.9174 22.6679 0
14 1 1.05742 25.1626 0
15 1 10.6274 4.43188 0
16 1 18.4035 20.1282 0
17 1 1.96801 23.9707 0
18 1 18.515 0.482317 0
19 1 22.8713 28.6056 0
20 1 7.75599 24.1599 0
21 1 19.4175 27.9772 0
22 1 23.0511 2.92271 0
23 1 0.704795 29.083 0
24 1 19.5287 2.59878 0
25 1 0.548096 6.04249 0
26 1 29.5993 4.7388 0
27 1 3.73783 14.2902 0
28 1 21.8302 23.8777 0
29 1 12.7284 7.86395 0
30 1 24.3704 26.941 0
31 1 14.8016 0.512922 0
32 1 28.3609 0.873113 0
33 1 6.2183 25.6605 0
34 1 6.49739 14.6944 0
35 1 21.2036 28.1815 0
36 1 12.2705 15.5926 0
37 1 20.6925 10.6942 0
38 1 28.0693 2.55922 0
39 1 26.6867 11.4 0
40 1 15.1901 7.68337 0
41 1 4.75913 8.78968 0
42 1 21.6254 17.1222 0
43 1 8.53533 17.9832 0
44 1 2.71088 18.3956 0
45 1 3.85848 3.71698 0
46 1 5.76693 28.9567 0
47 1 14.4835 17.3182 0
48 1 0.45347 25.9785 0
49 1 22.1262 7.3827 0
50 1 14.9754 27.4758 0
51 1 26.6421 9.52398 0
52 1 1.48947 8.625 0
53 1 11.3396 22.0444 0
54 1 6.92309 22.5575 0
55 1 22.1851 3.63202 0
56 1 1.10769 21.5325 0
57 1 19.7554 4.4492 0
58 1 0.568145 9.74618 0
59 1 21.4564 1.90315 0
60 1 2.61316 23.2702 0
61 1 0.15062 8.0773 0
62 1 16.4255 10.8187 0
63 1 8.47635 26.1597 0
64 1 15.7704 14.7132 0
65 1 23.1184 16.0256 0
66 1 9.85399 15.9308 0
67 1 8.35533 9.70562 0
68 1 10.8932 16.496 0
69 1 13.0015 22.1163 0
70 1 16.1208 22.569 0
71 1 28.5734 17.818 0
72 1 23.3255 23.1598 0
73 1 1.78949 29.0252 0
74 1 7.94326 5.93322 0
75 1 24.2382 15.6874 0
76 1 16.517 1.91813 0
77 1 2.9007 25.4911 0
78 1 29.379 17.365 0
79 1 17.5455 11.6438 0
80 1 7.57808 2.3409 0
81 1 3.06721 7.08664 0
82 1 28.1258 3.92465 0
83 1 25.1908 17.7097 0
84 1 27.1544 24.825 0
85 1 15.0152 14.2472 0
86 1 29.297 20.0097 0
87 1 3.02688 28.5536 0
88 1 24.1537 22.7059 0
89 1 26.7254 24.2072 0
90 1 16.0791 0.757292 0
91 1 17.2183 5.47402 0
92 1 4.56481 19.674 0
93 1 27.6546 6.62928 0
94 1 29.4419 14.9396 0
95 1 25.0991 1.67418 0
96 1 28.2995 28.9106 0
97 1 26.0694 0.328176 0
98 1 10.3333 29.6342 0
99 1 16.8891 15.7619 0
100 1 19.5779 25.1555 0
101 1 13.7637 30.007 0
102 1 8.28059 4.12706 0
103 1 19.763 15.9388 0
104 1 15.5751 3.12826 0
105 1 19.6892 19.2869 0
106 1 5.60167 21.8109 0
107 1 11.8722 27.2894 0
108 1 1.00728 12.1858 0
109 1 22.1253 11.7168 0
110 1 20.3088 25.9352 0
111 1 12.1966 5.87009 0
112 1 2.177 16.4544 0
113 1 5.55552 12.1198 0
114 1 3.92832 15.9359 0
115 1 26.6024 3.78039 0
116 1 4.68354 7.42784 0
117 1 15.6037 10.9521 0
118 1 19.8389 23.8357 0
119 1 25.5938 14.6879 0
120 1 24.6832 25.8032 0
121 1 24.2548 28.9345 0
122 1 21.6767 8.83017 0
123 1 24.6413 8.48047 0
124 1 2.47772 0.693748 0
125 1 16.1987 25.1068 0
126 1 15.5181 19.9276 0
127 1 9.93131 2.6239 0
128 1 25.609 28.1606 0
129 1 21.6004 18.7975 0
130 1 27.0441 20.3833 0
131 1 23.5473 0.224511 0
132 1 26.6959 21.9994 0
133 1 0.176296 15.5132 0
134 1 18.4728 24.7944 0
135 1 2.8496 4.22008 0
136 1 6.23599 3.84356 0
137 1 23.2801 12.0491 0
138 1 24.0403 13.0328 0
139 1 3.66601 5.0125 0
140 1 9.22482 1.46942 0
141 1 7.90532 13.7549 0
142 1 2.49369 11.0394 0
143 1 21.5898 2.72603 0
144 1 0.443681 14.446 0
145 1 17.3007 8.6223 0
146 1 12.5483 14.0064 0
147 1 23.2666 4.0783 0
148 1 18.5603 21.9595 0
149 1 22.0658 30.0231 0
150 1 9.40599 12.9198 0
151 1 14.0268 15.7513 0
152 1 5.44045 15.061 0
153 1 6.00594 24.4554 0
154 1 17.5471 29.789 0
155 1 16.7809 27.4779 0
156 1 21.8842 21.6109 0
157 1 22.4717 14.9288 0
158 1 14.1008 13.3441 0
159 1 7.37236 21.1174 0
160 1 29.7687 24.4391 0
161 1 19.5421 18.0169 0
162 1 12.3978 19.3649 0
163 1 25.4823 20.3758 0
164 1 15.8515 8.91224 0
165 1 12.1707 21.2954 0
166 1 27.565 10.6863 0
167 1 18.6488 15.1758 0
168 1 26.2621 18.4613 0
169 1 3.2161 17.4084 0
170 1 26.5713 16.7072 0
171 1 3.36901 22.7375 0
172 1 11.8348 7.86915 0
173 1 10.9251 5.861 0
174 1 7.71748 10.5303 0
175 1 17.4545 10.7849 0
176 1 19.8208 0.0514515 0
177 1 17.8604 19.1635 0
178 1 7.79206 14.9972 0
179 1 24.1416 21.2677 0
180 1 24.0969 14.4698 0
181 1 4.67631 27.7296 0
182 1 29.0878 1.6542 0
183 1 24.971 6.09712 0
184 1 1.39438 19.1368 0
185 1 20.1719 6.58741 0
186 1 9.94511 21.6896 0
187 1 26.9876 15.3708 0
188 1 29.753 26.9609 0
189 1 26.5905 1.46898 0
190 1 25.3323 24.5205 0
191 1 1.92767 4.78257 0
192 1 5.70427 14.217 0
193 1 24.7829 19.4602 0
194 1 25.0336 23.5456 0
ITEM: TIMESTEP
2520
ITEM: NUMBER OF ATOMS
194
ITEM: BOX BOUNDS pp pp pp
0.0000000000000000e+00 3.0000000000000000e+01
0.0000000000000000e+00 3.0000000000000000e+01
-5.0000000000000000e-01 5.0000000000000000e-01
ITEM: ATOMS id type x y z
1 1 19.9725 8.45411 0
2 1 19.4888 1.14696 0
3 1 11.2254 17.5537 0
4 1 4.6542 1.10379 0
5 1 0.266281 22.9392 0
6 1 13.3855 5.03387 0
7 1 11.9424 23.861 0
8 1 19.9817 21.0653 0
9 1 7.56178 20.1485 0
10 1 25.9844 12.787 0
11 1 25.8672 6.34986 0
12 1 26.3301 14.5447 0
13 1 21.9862 23.0765 0
14 1 1.17166 24.6177 0
15 1 10.3958 4.62905 0
16 1 18.847 20.3226 0
17 1 1.93935 24.0257 0
18 1 18.657 0.173517 0
19 1 22.6728 28.5252 0
20 1 7.94388 24.2735 0
21 1 19.3881 28.6427 0
22 1 23.5935 2.79256 0
23 1 0.398809 29.227 0
24 1 19.4285 2.49595 0
25 1 0.197064 5.8753 0
26 1 29.2231 4.82338 0
27 1 4.05798 14.1555 0
28 1 21.8214 24.0026 0
29 1 13.0036 8.10042 0
30 1 24.2074 26.9705 0
31 1 14.9676 0.851119 0
32 1 28.1241 0.926921 0
33 1 6.06909 26.1241 0
34 1 6.93893 14.8263 0
35 1 21.5162 28.3109 0
36 1 12.5308 15.5017 0
37 1 20.8421 9.99764 0
38 1 28.0836 2.70654 0
39 1 26.8415 11.5266 0
40 1 15.3235 7.76544 0
41 1 4.91689 8.92928 0
42 1 21.6599 16.954 0
43 1 8.36219 17.7718 0
44 1 2.87433 18.5554 0
45 1 3.60815 3.53716 0
46 1 5.62175 29.1776 0
47 1 14.745 17.1353 0
48 1 0.337748 26.1748 0
49 1 21.827 6.94512 0
50 1 15.3043 27.6976 0
51 1 26.4011 9.35816 0
52 1 1.76846 8.52843 0
53 1 11.6104 21.8247 0
54 1 6.98417 22.7034 0
55 1 22.2473 3.69954 0
56 1 1.12454 21.8697 0
57 1 19.8711 4.39588 0
58 1 0.635406 9.79101 0
59 1 21.3282 1.70105 0
60 1 2.72044 23.3701 0
61 1 29.894 7.74572 0
62 1 16.2911 10.7134 0
63 1 8.76528 25.8804 0
64 1 15.8945 14.7922 0
65 1 22.8873 15.6938 0
66 1 9.94393 15.6423 0
67 1 8.2655 9.45343 0
68 1 10.6099 16.3758 0
69 1 13.2381 22.0248 0
70 1 16.3084 22.7262 0
71 1 28.1904 17.5088 0
72 1 23.395 23.2964 0
73 1 1.94647 28.8613 0
74 1 7.67395 5.8567 0
75 1 24.0234 15.1936 0
76 1 16.3777 2.29304 0
77 1 2.80315 25.3947 0
78 1 29.2947 17.0812 0
79 1 17.9649 11.6979 0
80 1 7.70798 2.4291 0
81 1 2.55173 7.39895 0
82 1 28.3692 3.96651 0
83 1 24.7465 17.7494 0
84 1 27.5675 25.1962 0
85 1 14.805 14.554 0
86 1 29.9902 20.0424 0
87 1 2.87125 28.9218 0
88 1 24.1777 22.5516 0
89 1 26.7029 23.83 0
90 1 16.0904 0.835689 0
91 1 17.5868 5.42318 0
92 1 4.36379 19.2868 0
93 1 27.8262 6.62681 0
94 1 28.8795 14.9902 0
95 1 25.0829 1.53387 0
96 1 28.1597 29.2061 0
97 1 26.1965 0.64967 0
98 1 9.98132 29.4485 0
99 1 16.7324 15.3559 0
100 1 19.6379 24.8844 0
101 1 13.8643 0.65377 0
102 1 8.65433 3.80412 0
103 1 19.3368 16.0966 0
104 1 15.5771 3.00498 0
105 1 19.5532 19.1582 0
106 1 5.63471 21.9491 0
107 1 11.9608 27.1627 0
108 1 0.940562 12.2213 0
109 1 22.2196 11.9354 0
110 1 20.3943 25.4199 0
111 1 12.0416 5.93112 0
112 1 2.25033 16.3196 0
113 1 5.27345 12.4161 0
114 1 3.95264 16.2971 0
115 1 26.4259 3.65146 0
116 1 4.75059 7.41441 0
117 1 15.3356 11.2038 0
118 1 19.9054 24.1546 0
119 1 25.2567 14.4042 0
120 1 24.7286 25.9197 0
121 1 24.3454 29.0397 0
122 1 21.2958 9.09338 0
123 1 24.5219 8.60193 0
124 1 2.67526 0.452301 0
125 1 15.9585 25.4169 0
126 1 15.7679 20.1557 0
127 1 10.1684 2.70589 0
128 1 25.7605 28.1296 0
129 1 21.5921 18.9919 0
130 1 27.4257 20.6632 0
131 1 23.7357 0.42831 0
132 1 26.0834 22.3053 0
133 1 0.15781 15.1494 0
134 1 18.1617 24.8171 0
135 1 2.96833 4.55804 0
136 1 6.35149 4.4349 0
137 1 23.187 12.2642 0
138 1 23.9441 12.9662 0
139 1 3.43936 5.62807 0
140 1 9.39348 0.95247 0
141 1 7.64525 13.5615 0
142 1 2.61065 11.1793 0
143 1 21.7114 2.93745 0
144 1 -0.100395 14.2675 0
145 1 17.1711 8.70736 0
146 1 12.8276 13.6058 0
147 1 23.0028 4.09216 0
148 1 18.485 21.9321 0
149 1 21.9901 0.0970296 0
150 1 9.35119 13.1457 0
151 1 14.5893 15.5145 0
152 1 5.44123 15.4707 0
153 1 6.11816 24.6687 0
154 1 17.187 29.8467 0
155 1 16.6304 27.3056 0
156 1 21.9354 22.0325 0
157 1 22.2349 14.7435 0
158 1 14.1822 13.6002 0
159 1 7.1999 20.9318 0
160 1 0.0767071 24.5511 0
161 1 19.6114 18.0083 0
162 1 12.5617 19.1695 0
163 1 25.567 20.2534 0
164 1 15.8629 9.06245 0
165 1 12.2068 20.8955 0
166 1 27.2327 10.5587 0
167 1 18.0737 15.0965 0
168 1 26.1996 18.3817 0
169 1 3.221 17.6207 0
170 1 26.9695 16.0878 0
171 1 3.64954 22.9354 0
172 1 12.0497 7.37916 0
173 1 10.5942 5.7566 0
174 1 7.8564 10.7173 0
175 1 17.2514 10.7401 0
176 1 19.7724 29.8839 0
177 1 17.7935 19.7178 0
178 1 7.74486 14.8413 0
179 1 24.2675 20.8284 0
180 1 23.9674 14.2825 0
181 1 4.60257 28.1877 0
182 1 28.9635 1.7796 0
183 1 24.8947 6.02991 0
184 1 1.58083 18.6607 0
185 1 20.3209 6.31484 0
186 1 10.3149 21.2016 0
187 1 27.2548 15.1602 0
188 1 30.0559 27.071 0
189 1 26.6283 1.76396 0
190 1 25.4195 24.3339 0
191 1 1.93077 4.93043 0
192 1 5.8042 14.115 0
193 1 25.0164 19.3654 0
194 1 25.135 23.4081 0
ITEM: TIMESTEP
2535
ITEM: NUMBER OF ATOMS
194
ITEM: BOX BOUNDS pp pp pp
0.0000000000000000e+00 3.0000000000000000e+01
0.0000000000000000e+00 3.0000000000000000e+01
-5.0000000000000000e-01 5.0000000000000000e-01
ITEM: ATOMS id type x y z
1 1 19.599 8.66541 0
2 1 19.6981 1.0934 0
3 1 11.5446 17.2879 0
4 1 4.43089 1.25296 0
5 1 -0.115961 23.0699 0
6 1 13.5501 5.07229 0
7 1 12.3082 23.9778 0
8 1 19.7377 21.0584 0
9 1 7.22214 19.8892 0
10 1 26.2896 12.5287 0
11 1 25.8767 6.15204 0
12 1 26.2521 14.3722 0
13 1 22.1676 23.4615 0
14 1 1.02488 24.2176 0
15 1 10.1605 4.8017 0
16 1 19.1742 20.4047 0
17 1 2.09662 24.0451 0
18 1 18.7921 -0.1299 0
19 1 22.5823 28.4557 0
20 1 8.13118 24.3875 0
21 1 19.2779 29.1577 0
22 1 24.1328 2.66616 0
23 1 0.0948957 29.3702 0
24 1 19.3291 2.38908 0
25 1 -0.156105 5.70604 0
26 1 28.8512 4.91712 0
27 1 4.37983 14.021 0
28 1 21.7169 24.492 0
29 1 13.3467 8.35455 0
30 1 24.0466 26.9971 0
31 1 15.1299 1.19065 0
32 1 27.8884 0.983575 0
33 1 5.91993 26.5845 0
34 1 6.83988 14.9362 0
35 1 21.7215 28.4317 0
36 1 12.7914 15.4105 0
37 1 20.67 9.97384 0
38 1 28.1012 2.85393 0
39 1 26.988 11.6681 0
40 1 15.4586 7.85109 0
41 1 5.07441 9.06644 0
42 1 21.6949 16.7853 0
43 1 8.18905 17.5603 0
44 1 3.01799 18.7644 0
45 1 3.35596 3.36107 0
46 1 5.47386 29.3963 0
47 1 15.0062 16.9506 0
48 1 0.250444 26.2523 0
49 1 21.5257 6.50717 0
50 1 15.6368 27.9181 0
51 1 26.1616 9.1949 0
52 1 2.03549 8.48552 0
53 1 11.8786 21.6057 0
54 1 7.04375 22.8481 0
55 1 22.141 3.8255 0
56 1 1.13906 22.2101 0
57 1 19.9869 4.34246 0
58 1 0.703559 9.83477 0
59 1 21.1963 1.48094 0
60 1 2.93746 23.3525 0
61 1 29.638 7.41394 0
62 1 15.8648 10.5927 0
63 1 9.05375 25.6002 0
64 1 15.839 14.776 0
65 1 22.6606 15.3592 0
66 1 10.0022 15.3139 0
67 1 8.17466 9.20448 0
68 1 10.3604 16.2993 0
69 1 13.4713 21.9313 0
70 1 16.4962 22.8833 0
71 1 27.8014 17.2021 0
72 1 23.4418 23.4465 0
73 1 1.53202 28.7396 0
74 1 7.40405 5.77938 0
75 1 23.8151 14.9122 0
76 1 16.334 2.60629 0
77 1 2.70398 25.2962 0
78 1 29.2159 16.7938 0
79 1 18.3912 11.7762 0
80 1 7.83887 2.51836 0
81 1 2.04733 7.65804 0
82 1 28.6088 3.99657 0
83 1 24.3043 17.7912 0
84 1 28.0008 25.5972 0
85 1 14.5026 14.6081 0
86 1 0.683592 20.0751 0
87 1 3.28554 29.2511 0
88 1 24.2254 22.3857 0
89 1 26.6542 23.4226 0
90 1 16.1077 0.914111 0
91 1 17.9552 5.37233 0
92 1 4.16071 18.8986 0
93 1 27.9976 6.62419 0
94 1 28.3328 15.0399 0
95 1 25.0702 1.39146 0
96 1 28.0199 29.5029 0
97 1 26.3232 0.977358 0
98 1 9.62876 29.2648 0
99 1 16.7915 15.0859 0
100 1 19.2131 25.0585 0
101 1 13.9657 1.3006 0
102 1 9.02813 3.48013 0
103 1 18.9093 16.2538 0
104 1 15.4826 2.93981 0
105 1 19.4148 19.0318 0
106 1 5.67007 22.088 0
107 1 12.0493 27.0361 0
108 1 0.874141 12.2566 0
109 1 22.2598 12.1345 0
110 1 20.7333 25.1189 0
111 1 11.8843 5.99143 0
112 1 2.32577 16.1863 0
113 1 4.99147 12.7136 0
114 1 3.97558 16.6598 0
115 1 26.2505 3.52162 0
116 1 4.81748 7.40324 0
117 1 15.0309 11.4657 0
118 1 20.2006 23.8133 0
119 1 24.834 14.1147 0
120 1 24.7728 26.0389 0
121 1 24.4351 29.1459 0
122 1 21.2335 8.68167 0
123 1 24.403 8.72349 0
124 1 2.87311 0.20783 0
125 1 15.7186 25.7275 0
126 1 16.0182 20.3838 0
127 1 10.4046 2.78806 0
128 1 25.9105 28.0989 0
129 1 21.5833 19.1859 0
130 1 27.8064 20.9433 0
131 1 23.9249 0.63034 0
132 1 25.5766 22.4818 0
133 1 0.173767 14.9692 0
134 1 17.8545 24.84 0
135 1 3.09264 4.89501 0
136 1 6.46781 5.02678 0
137 1 23.1073 12.4676 0
138 1 23.8895 12.9347 0
139 1 3.21026 6.23977 0
140 1 9.56292 0.434388 0
141 1 7.38464 13.3751 0
142 1 2.72712 11.3193 0
143 1 21.6911 2.94252 0
144 1 29.3228 13.9119 0
145 1 17.037 8.79398 0
146 1 13.1109 13.2061 0
147 1 23.0555 4.26658 0
148 1 18.4107 21.9027 0
149 1 21.9151 0.170475 0
150 1 9.29535 13.372 0
151 1 15.1758 15.5282 0
152 1 5.44202 15.8816 0
153 1 6.23111 24.8848 0
154 1 16.8274 29.9073 0
155 1 16.4764 27.1341 0
156 1 21.973 22.1141 0
157 1 22.0002 14.5592 0
158 1 14.2468 13.8234 0
159 1 6.90762 21.006 0
160 1 0.320039 24.6882 0
161 1 19.681 18.001 0
162 1 12.7252 18.9747 0
163 1 25.6611 20.1526 0
164 1 15.8775 9.20982 0
165 1 12.2453 20.495 0
166 1 26.9054 10.4157 0
167 1 17.5443 15.0143 0
168 1 26.1335 18.3031 0
169 1 3.24272 17.7817 0
170 1 27.2936 15.6967 0
171 1 3.96055 23.1187 0
172 1 12.1971 6.87049 0
173 1 10.27 5.67665 0
174 1 7.99633 10.901 0
175 1 17.3696 10.6743 0
176 1 19.811 29.8686 0
177 1 17.73 20.2734 0
178 1 8.23563 14.6999 0
179 1 24.3974 20.3877 0
180 1 23.8305 13.8807 0
181 1 4.53059 28.6486 0
182 1 28.8328 1.90628 0
183 1 24.7893 5.95249 0
184 1 1.77232 18.1841 0
185 1 20.4716 6.04288 0
186 1 10.6882 20.7149 0
187 1 27.6076 14.7437 0
188 1 0.331024 27.2974 0
189 1 26.6644 2.0551 0
190 1 25.5861 24.3958 0
191 1 1.93213 5.08019 0
192 1 5.90566 14.0114 0
193 1 25.2389 19.2487 0
194 1 25.051 23.1488 0
ITEM: TIMESTEP
2550
ITEM: NUMBER OF ATOMS
194
ITEM: BOX BOUNDS pp pp pp
0.0000000000000000e+00 3.0000000000000000e+01
0.0000000000000000e+00 3.0000000000000000e+01
-5.0000000000000000e-01 5.0000000000000000e-01
ITEM: ATOMS id type x y z
1 1 19.2278 8.87789 0
2 1 19.8982 1.07612 0
3 1 11.8624 17.0206 0
4 1 4.20708 1.40148 0
5 1 29.5053 23.2015 0
6 1 13.7141 5.11117 0
7 1 12.674 24.0943 0
8 1 19.9311 21.4946 0
9 1 6.89541 19.5975 0
10 1 26.5372 12.3299 0
11 1 25.8909 5.95553 0
12 1 26.1758 14.2007 0
13 1 22.4095 23.6487 0
14 1 0.990269 23.7334 0
15 1 9.89609 4.73736 0
16 1 19.0595 20.0408 0
17 1 2.4469 23.9863 0
18 1 18.672 29.9539 0
19 1 22.9007 28.4112 0
20 1 8.31924 24.503 0
21 1 19.1192 28.8271 0
22 1 24.6728 2.5385 0
23 1 29.7925 29.5124 0
24 1 19.2313 2.27816 0
25 1 29.4868 5.53497 0
26 1 28.5 5.08506 0
27 1 4.70458 13.8904 0
28 1 21.8514 25.1196 0
29 1 13.6893 8.60783 0
30 1 23.8887 27.0204 0
31 1 15.2591 1.54155 0
32 1 27.653 1.04243 0
33 1 5.77092 27.0437 0
34 1 6.71807 15.0423 0
35 1 21.5185 28.5292 0
36 1 13.0529 15.3186 0
37 1 20.3482 10.2638 0
38 1 28.1221 3.00157 0
39 1 27.1914 11.7482 0
40 1 15.5951 7.94051 0
41 1 5.23172 9.20229 0
42 1 21.7303 16.6158 0
43 1 8.01594 17.3489 0
44 1 3.1327 19.0196 0
45 1 3.10312 3.18733 0
46 1 5.3244 29.614 0
47 1 15.2681 16.7623 0
48 1 0.168245 26.2751 0
49 1 21.3089 6.1092 0
50 1 15.9717 28.1364 0
51 1 25.9231 9.03439 0
52 1 2.26875 8.85422 0
53 1 12.1471 21.3823 0
54 1 7.10181 22.9918 0
55 1 22.0613 4.07952 0
56 1 1.15189 22.5529 0
57 1 20.1031 4.2896 0
58 1 0.772223 9.87815 0
59 1 21.0636 1.25985 0
60 1 3.14706 23.3304 0
61 1 29.3813 7.0806 0
62 1 15.4385 10.4708 0
63 1 9.34064 25.3181 0
64 1 15.5017 14.5712 0
65 1 22.4572 15.0442 0
66 1 10.046 14.9605 0
67 1 8.08361 8.95692 0
68 1 10.126 16.2488 0
69 1 13.7024 21.8372 0
70 1 16.6842 23.0403 0
71 1 27.4145 16.8927 0
72 1 23.488 23.5931 0
73 1 1.11611 28.6183 0
74 1 7.30574 5.78407 0
75 1 23.6072 14.7317 0
76 1 16.507 2.80834 0
77 1 2.60289 25.1935 0
78 1 29.1338 16.5062 0
79 1 18.8156 11.8523 0
80 1 7.97152 2.60898 0
81 1 1.57672 7.50525 0
82 1 28.8287 3.95077 0
83 1 23.8633 17.8342 0
84 1 28.4342 25.9982 0
85 1 14.307 14.9142 0
86 1 1.37723 20.1078 0
87 1 3.76136 29.4926 0
88 1 24.2756 22.2243 0
89 1 26.5996 23.0148 0
90 1 16.1577 0.981607 0
91 1 18.3239 5.3214 0
92 1 3.97169 18.5049 0
93 1 28.1704 6.62118 0
94 1 28.3535 15.315 0
95 1 25.059 1.24787 0
96 1 27.8801 29.8026 0
97 1 26.4479 1.30655 0
98 1 9.27296 29.0729 0
99 1 16.3109 15.03 0
100 1 18.776 25.2494 0
101 1 14.0711 1.94714 0
102 1 9.40301 3.15459 0
103 1 18.4812 16.4107 0
104 1 15.1705 2.98264 0
105 1 19.272 18.9214 0
106 1 5.70797 22.2271 0
107 1 12.1378 26.9094 0
108 1 0.807886 12.2917 0
109 1 22.1159 12.2616 0
110 1 20.7746 24.87 0
111 1 11.6202 5.85735 0
112 1 2.40249 16.0543 0
113 1 4.71034 13.009 0
114 1 3.99622 17.0256 0
115 1 26.0763 3.38896 0
116 1 4.88422 7.39315 0
117 1 14.7285 11.7248 0
118 1 20.5068 23.4572 0
119 1 24.4719 13.844 0
120 1 24.8143 26.1615 0
121 1 24.5243 29.2533 0
122 1 21.3188 7.9548 0
123 1 24.2848 8.84525 0
124 1 3.00113 0.055653 0
125 1 15.4799 26.0401 0
126 1 16.2697 20.6118 0
127 1 10.6385 2.87153 0
128 1 26.0594 28.0685 0
129 1 21.5741 19.3796 0
130 1 28.187 21.2234 0
131 1 24.1174 0.832561 0
132 1 25.5521 22.0596 0
133 1 0.188395 14.791 0
134 1 17.5511 24.8634 0
135 1 3.21445 5.23428 0
136 1 6.41255 5.53662 0
137 1 23.0375 12.6466 0
138 1 24.0652 12.6926 0
139 1 2.97956 6.84752 0
140 1 9.73563 -0.0753356 0
141 1 7.12326 13.1927 0
142 1 2.84328 11.4595 0
143 1 21.5695 2.77863 0
144 1 28.7437 13.5568 0
145 1 16.8977 8.88255 0
146 1 13.3991 12.8092 0
147 1 23.1825 4.47916 0
148 1 18.3377 21.8702 0
149 1 21.8388 0.244784 0
150 1 9.23811 13.6002 0
151 1 15.7627 15.7458 0
152 1 5.44264 16.2915 0
153 1 6.34441 25.1018 0
154 1 16.4659 29.9709 0
155 1 16.3187 26.9629 0
156 1 22.0115 22.2003 0
157 1 21.7481 14.3536 0
158 1 14.1777 13.6469 0
159 1 6.60131 21.1144 0
160 1 0.247403 25.0003 0
161 1 19.7541 17.9818 0
162 1 12.888 18.7815 0
163 1 25.7709 20.0955 0
164 1 15.8955 9.35641 0
165 1 12.2818 20.0969 0
166 1 26.5769 10.2728 0
167 1 17.8572 14.8526 0
168 1 26.0642 18.2275 0
169 1 3.27539 17.8963 0
170 1 27.5209 15.5144 0
171 1 4.28999 23.2969 0
172 1 12.4508 6.55601 0
173 1 9.97637 5.83303 0
174 1 8.13646 11.0833 0
175 1 17.4873 10.6097 0
176 1 20.1641 0.280681 0
177 1 17.6695 20.8305 0
178 1 8.74602 14.555 0
179 1 24.5344 19.9439 0
180 1 23.5734 13.6692 0
181 1 4.46798 29.1061 0
182 1 28.6957 2.03353 0
183 1 24.6792 5.87373 0
184 1 1.9698 17.7083 0
185 1 20.5375 5.73018 0
186 1 11.066 20.2294 0
187 1 27.4895 13.8913 0
188 1 0.601626 27.5772 0
189 1 26.7011 2.34773 0
190 1 25.7531 24.4529 0
191 1 1.93778 5.23013 0
192 1 6.0086 13.9098 0
193 1 25.4414 19.0879 0
194 1 24.4825 23.4926 0
ITEM: TIMESTEP
2565
ITEM: NUMBER OF ATOMS
194
ITEM: BOX BOUNDS pp pp pp
0.0000000000000000e+00 3.0000000000000000e+01
0.0000000000000000e+00 3.0000000000000000e+01
-5.0000000000000000e-01 5.0000000000000000e-01
ITEM: ATOMS id type x y z
1 1 18.8572 9.09106 0
2 1 19.979 1.40749 0
3 1 12.18 16.7531 0
4 1 3.98263 1.54882 0
5 1 29.1292 23.3337 0
6 1 13.8775 5.15056 0
7 1 13.0398 24.2108 0
8 1 20.124 21.9324 0
9 1 6.56816 19.3082 0
10 1 26.5699 12.3348 0
11 1 25.9007 5.75878 0
12 1 26.1029 14.028 0
13 1 22.4956 23.8513 0
14 1 0.885915 23.544 0
15 1 9.62681 4.62424 0
16 1 18.939 19.693 0
17 1 2.7297 23.9933 0
18 1 18.4951 0.144252 0
19 1 23.2252 28.3663 0
20 1 8.51038 24.6211 0
21 1 19.02 28.3914 0
22 1 25.2158 2.40701 0
23 1 29.4912 29.6534 0
24 1 19.1363 2.16326 0
25 1 29.1395 5.36891 0
26 1 28.1388 5.26226 0
27 1 5.06384 14.0329 0
28 1 22.3272 25.7011 0
29 1 14.0324 8.86099 0
30 1 23.7341 27.0414 0
31 1 15.3685 1.90531 0
32 1 27.4181 1.10115 0
33 1 5.62194 27.5027 0
34 1 6.5937 15.1445 0
35 1 21.3105 28.6277 0
36 1 13.2982 15.2273 0
37 1 20.0257 10.553 0
38 1 28.1434 3.15209 0
39 1 27.6099 11.6246 0
40 1 15.7334 8.03428 0
41 1 5.3889 9.33742 0
42 1 21.7662 16.4453 0
43 1 7.84293 17.1373 0
44 1 3.20191 19.2961 0
45 1 2.85037 3.01389 0
46 1 5.3368 29.9721 0
47 1 15.5066 16.5958 0
48 1 0.0858788 26.2987 0
49 1 21.4309 5.87498 0
50 1 16.3079 28.3511 0
51 1 25.6849 8.87705 0
52 1 2.50214 9.23412 0
53 1 12.4164 21.1532 0
54 1 7.15838 23.1348 0
55 1 21.9817 4.33196 0
56 1 1.24221 22.5969 0
57 1 20.2204 4.23906 0
58 1 0.84153 9.92121 0
59 1 20.9533 1.06597 0
60 1 3.42206 23.247 0
61 1 29.1451 6.74917 0
62 1 15.0129 10.3469 0
63 1 9.62384 25.0332 0
64 1 15.0365 14.2742 0
65 1 22.2973 14.766 0
66 1 10.0924 14.6089 0
67 1 7.99256 8.70968 0
68 1 9.89173 16.1948 0
69 1 13.9318 21.7424 0
70 1 16.8728 23.1974 0
71 1 27.0289 16.5789 0
72 1 23.329 23.7325 0
73 1 0.715878 28.6353 0
74 1 7.60627 5.95757 0
75 1 23.4002 14.5653 0
76 1 16.68 3.00827 0
77 1 2.50095 25.0855 0
78 1 29.0587 16.2331 0
79 1 19.2396 11.9276 0
80 1 8.10621 2.70041 0
81 1 1.10701 7.34048 0
82 1 29.0451 3.8916 0
83 1 23.4229 17.8776 0
84 1 28.8693 26.399 0
85 1 14.1433 15.2529 0
86 1 2.07131 20.1403 0
87 1 3.85366 29.8963 0
88 1 24.3302 22.0673 0
89 1 26.5413 22.6057 0
90 1 16.2203 1.05812 0
91 1 18.6931 5.27033 0
92 1 4.06378 18.2652 0
93 1 28.3239 6.61093 0
94 1 28.6817 15.5249 0
95 1 25.1397 1.13494 0
96 1 27.7399 30.1064 0
97 1 26.5679 1.62574 0
98 1 8.89202 28.8314 0
99 1 16.0162 14.8852 0
100 1 18.3346 25.4385 0
101 1 14.1746 2.58742 0
102 1 9.78039 2.8285 0
103 1 18.053 16.5669 0
104 1 14.865 3.02746 0
105 1 19.1263 18.8085 0
106 1 5.74882 22.365 0
107 1 12.2263 26.7828 0
108 1 0.741748 12.3268 0
109 1 21.9024 12.3607 0
110 1 20.4745 24.6618 0
111 1 11.2901 5.62903 0
112 1 2.47961 15.9243 0
113 1 4.40057 13.0323 0
114 1 4.02061 17.3854 0
115 1 25.9013 3.2526 0
116 1 4.95078 7.38355 0
117 1 14.4286 11.9813 0
118 1 20.8144 23.1036 0
119 1 24.2678 13.6083 0
120 1 24.8523 26.2873 0
121 1 24.6129 29.3617 0
122 1 21.4037 7.22711 0
123 1 24.1682 8.96716 0
124 1 2.92934 0.0660558 0
125 1 15.2424 26.3547 0
126 1 16.5247 20.8407 0
127 1 10.8681 2.95631 0
128 1 26.2078 28.0382 0
129 1 21.5646 19.5732 0
130 1 28.5676 21.5037 0
131 1 24.2216 1.00754 0
132 1 25.5257 21.639 0
133 1 0.201646 14.6128 0
134 1 17.2523 24.8882 0
135 1 3.33103 5.57483 0
136 1 5.95841 5.87776 0
137 1 22.9592 12.7924 0
138 1 24.3516 12.2873 0
139 1 2.74727 7.45426 0
140 1 9.93347 29.4645 0
141 1 6.85872 13.0135 0
142 1 2.95933 11.5998 0
143 1 21.4481 2.61572 0
144 1 28.1773 13.2047 0
145 1 16.7616 8.96832 0
146 1 13.6877 12.4138 0
147 1 23.3078 4.69139 0
148 1 18.2877 21.8562 0
149 1 21.7577 0.321589 0
150 1 9.23426 13.6318 0
151 1 16.279 16.1243 0
152 1 5.44242 16.7014 0
153 1 6.45798 25.3189 0
154 1 16.1068 30.0183 0
155 1 16.1589 26.7937 0
156 1 22.0504 22.2895 0
157 1 21.4585 14.1094 0
158 1 14.1001 13.4369 0
159 1 6.29355 21.2235 0
160 1 0.167892 25.3191 0
161 1 19.8334 17.9496 0
162 1 13.0491 18.5909 0
163 1 25.8816 20.0545 0
164 1 15.9067 9.50727 0
165 1 12.3273 19.7004 0
166 1 26.2472 10.1288 0
167 1 18.1981 14.6892 0
168 1 26.0153 18.1183 0
169 1 3.06329 17.8389 0
170 1 27.4651 15.404 0
171 1 4.61906 23.4743 0
172 1 12.7693 6.33513 0
173 1 9.68905 6.03681 0
174 1 8.27653 11.2655 0
175 1 17.6048 10.5447 0
176 1 20.6144 0.31744 0
177 1 17.5857 21.3671 0
178 1 9.19983 14.6084 0
179 1 24.6802 19.4974 0
180 1 23.1196 13.6359 0
181 1 4.82725 29.0996 0
182 1 28.5556 2.15871 0
183 1 24.5733 5.79498 0
184 1 2.17331 17.2326 0
185 1 20.2639 5.25171 0
186 1 11.437 19.7457 0
187 1 27.3215 13.0179 0
188 1 0.854049 27.7169 0
189 1 26.742 2.65222 0
190 1 25.9192 24.5078 0
191 1 1.94877 5.38057 0
192 1 6.11177 13.8087 0
193 1 25.6135 18.9472 0
194 1 24.2743 23.8245 0
ITEM: TIMESTEP
2580
ITEM: NUMBER OF ATOMS
194
ITEM: BOX BOUNDS pp pp pp
0.0000000000000000e+00 3.0000000000000000e+01
0.0000000000000000e+00 3.0000000000000000e+01
-5.0000000000000000e-01 5.0000000000000000e-01
ITEM: ATOMS id type x y z
1 1 18.4863 9.3053 0
2 1 20.0331 1.77229 0
3 1 12.4981 16.4852 0
4 1 3.75744 1.69432 0
5 1 28.7543 23.4656 0
6 1 14.0397 5.1911 0
7 1 13.4057 24.3272 0
8 1 20.311 22.3674 0
9 1 6.24079 19.0195 0
10 1 26.1487 12.0939 0
11 1 25.9061 5.56208 0
12 1 26.0318 13.8533 0
13 1 21.9416 24.1292 0
14 1 0.651558 23.8222 0
15 1 9.35821 4.51379 0
16 1 18.7781 19.5333 0
17 1 2.97911 24.0336 0
18 1 18.3193 0.334228 0
19 1 23.5509 28.319 0
20 1 8.7054 24.7406 0
21 1 18.9206 27.9569 0
22 1 25.742 2.21459 0
23 1 29.1906 29.7933 0
24 1 19.0381 2.049 0
25 1 28.827 5.21027 0
26 1 27.7432 5.43804 0
27 1 5.42061 14.2547 0
28 1 22.8034 26.2822 0
29 1 14.3772 9.11533 0
30 1 23.5813 27.0626 0
31 1 15.476 2.27329 0
32 1 27.2098 1.17376 0
33 1 5.47244 27.9628 0
34 1 6.46732 15.2432 0
35 1 21.103 28.7282 0
36 1 13.2021 15.1141 0
37 1 19.7017 10.8439 0
38 1 28.1616 3.31241 0
39 1 28.0342 11.4988 0
40 1 15.8742 8.1338 0
41 1 5.54599 9.47214 0
42 1 21.8025 16.2738 0
43 1 7.66993 16.9256 0
44 1 3.28178 19.5568 0
45 1 2.59807 2.83996 0
46 1 5.50339 0.49159 0
47 1 15.6179 16.5169 0
48 1 0.0245081 26.4406 0
49 1 21.5607 5.63718 0
50 1 16.6438 28.5646 0
51 1 25.4459 8.72366 0
52 1 2.73475 9.61335 0
53 1 12.6864 20.9206 0
54 1 7.2135 23.277 0
55 1 21.9037 4.5865 0
56 1 1.46239 22.1745 0
57 1 20.363 4.03326 0
58 1 0.911588 9.96407 0
59 1 21.0356 1.25643 0
60 1 3.73504 23.1304 0
61 1 29.3066 6.47408 0
62 1 14.59 10.2193 0
63 1 9.90266 24.7467 0
64 1 14.563 13.9793 0
65 1 22.1488 14.5004 0
66 1 10.3422 14.2323 0
67 1 7.90151 8.46248 0
68 1 9.65711 16.1376 0
69 1 14.1597 21.6471 0
70 1 17.062 23.3546 0
71 1 26.6454 16.2606 0
72 1 23.4484 23.7864 0
73 1 0.325633 28.9554 0
74 1 7.90641 6.13109 0
75 1 23.2515 14.5252 0
76 1 16.851 3.20712 0
77 1 2.39836 24.9777 0
78 1 29.2481 16.4719 0
79 1 19.6643 12.0006 0
80 1 8.24227 2.79207 0
81 1 0.638526 7.17549 0
82 1 29.2572 3.83347 0
83 1 22.9825 17.9212 0
84 1 29.2731 26.8118 0
85 1 14.3255 15.6095 0
86 1 2.75556 20.1835 0
87 1 4.01354 0.302177 0
88 1 24.3894 21.9105 0
89 1 26.48 22.1945 0
90 1 16.2806 1.15616 0
91 1 19.0643 5.21888 0
92 1 4.31934 18.4748 0
93 1 28.0805 6.53383 0
94 1 28.7698 15.2185 0
95 1 25.3961 1.0634 0
96 1 27.619 0.364884 0
97 1 26.6367 1.95779 0
98 1 8.50946 28.5863 0
99 1 15.7414 14.7041 0
100 1 17.8888 25.6254 0
101 1 13.7881 2.93771 0
102 1 10.1526 2.5018 0
103 1 17.631 16.7249 0
104 1 15.0558 3.35591 0
105 1 19.0187 18.5104 0
106 1 5.79189 22.5005 0
107 1 12.3149 26.6561 0
108 1 0.675715 12.3618 0
109 1 21.6881 12.4608 0
110 1 20.1755 24.4519 0
111 1 10.96 5.40172 0
112 1 2.55655 15.797 0
113 1 4.07498 12.9847 0
114 1 4.01785 17.3709 0
115 1 25.7289 3.18032 0
116 1 5.01774 7.37329 0
117 1 14.7178 11.9434 0
118 1 21.1304 22.7537 0
119 1 24.0705 13.3729 0
120 1 24.8869 26.4155 0
121 1 24.7007 29.471 0
122 1 21.4881 6.50397 0
123 1 24.054 9.08894 0
124 1 2.70881 0.123632 0
125 1 14.9738 26.6584 0
126 1 16.7621 21.0514 0
127 1 11.1014 3.04266 0
128 1 26.3558 28.0079 0
129 1 21.5551 19.7666 0
130 1 28.9481 21.7845 0
131 1 24.1541 1.14646 0
132 1 25.4975 21.221 0
133 1 0.213816 14.4352 0
134 1 16.9576 24.9144 0
135 1 3.44379 5.91542 0
136 1 5.50454 6.21983 0
137 1 22.8263 12.6443 0
138 1 24.6348 11.8885 0
139 1 2.51372 8.06121 0
140 1 10.1329 29.0079 0
141 1 6.60198 12.822 0
142 1 3.07553 11.7403 0
143 1 21.3254 2.45142 0
144 1 27.9093 12.964 0
145 1 16.6569 9.03021 0
146 1 13.386 12.3116 0
147 1 23.4301 4.90363 0
148 1 18.4739 22.0073 0
149 1 21.6993 0.401474 0
150 1 9.29002 13.3861 0
151 1 16.9011 16.452 0
152 1 5.44052 17.112 0
153 1 6.57177 25.5359 0
154 1 15.7479 0.0464778 0
155 1 16.0306 26.6375 0
156 1 22.0875 22.3821 0
157 1 21.158 13.853 0
158 1 14.0233 13.2266 0
159 1 5.98389 21.3369 0
160 1 0.100027 25.5086 0
161 1 19.9148 17.9147 0
162 1 13.2073 18.4039 0
163 1 25.9877 20.0126 0
164 1 15.8802 9.68102 0
165 1 12.6262 19.2939 0
166 1 25.916 9.98146 0
167 1 18.5385 14.5267 0
168 1 26.0308 17.8791 0
169 1 2.72584 17.7229 0
170 1 27.383 15.3015 0
171 1 4.94415 23.6495 0
172 1 13.0873 6.11199 0
173 1 9.4025 6.23675 0
174 1 8.4165 11.4477 0
175 1 17.7223 10.4784 0
176 1 20.8798 -0.0674106 0
177 1 17.2839 21.7572 0
178 1 9.39085 14.9676 0
179 1 24.8075 19.0603 0
180 1 22.6593 13.7635 0
181 1 5.11433 28.8836 0
182 1 28.4163 2.27485 0
183 1 24.471 5.71513 0
184 1 2.36732 16.7419 0
185 1 19.9578 4.92539 0
186 1 11.5583 19.2722 0
187 1 27.3007 12.2833 0
188 1 1.09382 27.5529 0
189 1 26.8053 2.96769 0
190 1 26.0843 24.5621 0
191 1 1.96354 5.53189 0
192 1 6.22713 13.7151 0
193 1 25.744 18.9289 0
194 1 24.427 24.1637 0
ITEM: TIMESTEP
2595
ITEM: NUMBER OF ATOMS
194
ITEM: BOX BOUNDS pp pp pp
0.0000000000000000e+00 3.0000000000000000e+01
0.0000000000000000e+00 3.0000000000000000e+01
-5.0000000000000000e-01 5.0000000000000000e-01
ITEM: ATOMS id type x y z
1 1 18.1142 9.52007 0
2 1 20.107 2.13228 0
3 1 12.8176 16.2153 0
4 1 3.5317 1.83688 0
5 1 28.3801 23.5965 0
6 1 14.1994 5.23366 0
7 1 13.7716 24.4437 0
8 1 20.3612 22.7514 0
9 1 5.91248 18.7303 0
10 1 25.5565 11.7386 0
11 1 25.9092 5.36559 0
12 1 25.9613 13.6774 0
13 1 21.3833 24.4053 0
14 1 0.41726 24.1002 0
15 1 9.09016 4.4044 0
16 1 18.6038 19.434 0
17 1 3.22998 24.0713 0
18 1 18.1438 0.524895 0
19 1 23.8782 28.2699 0
20 1 8.90484 24.8599 0
21 1 18.8212 27.5225 0
22 1 25.8794 1.95281 0
23 1 28.8916 29.9317 0
24 1 18.9223 1.93993 0
25 1 28.5224 5.05426 0
26 1 27.3377 5.60867 0
27 1 5.72083 14.5151 0
28 1 22.9897 26.5528 0
29 1 14.7344 9.32953 0
30 1 23.7209 27.3954 0
31 1 15.585 2.64203 0
32 1 26.9777 1.32305 0
33 1 5.46452 27.9579 0
34 1 6.33856 15.3381 0
35 1 20.89 28.7369 0
36 1 13.0568 14.9944 0
37 1 19.3765 11.136 0
38 1 28.1777 3.48447 0
39 1 28.4655 11.3711 0
40 1 16.0155 8.23695 0
41 1 5.70302 9.60662 0
42 1 21.8392 16.1017 0
43 1 7.49679 16.7135 0
44 1 3.66861 19.4287 0
45 1 2.34696 2.66491 0
46 1 5.6667 1.00923 0
47 1 15.7196 16.4398 0
48 1 0.283077 26.6067 0
49 1 21.5869 5.38653 0
50 1 16.9792 28.7784 0
51 1 25.2054 8.57534 0
52 1 2.96641 9.99105 0
53 1 12.9575 20.6866 0
54 1 7.26711 23.4187 0
55 1 21.9746 4.40454 0
56 1 1.68226 21.7532 0
57 1 20.5529 3.64935 0
58 1 0.982352 10.0068 0
59 1 21.1219 1.45923 0
60 1 4.05154 23.0169 0
61 1 29.5202 6.20099 0
62 1 14.1611 10.1314 0
63 1 10.1767 24.4601 0
64 1 14.1854 13.841 0
65 1 21.8191 14.5108 0
66 1 10.6381 13.8405 0
67 1 7.81048 8.21511 0
68 1 9.42204 16.1313 0
69 1 14.3863 21.5511 0
70 1 17.2516 23.5113 0
71 1 26.265 15.9391 0
72 1 23.5369 23.8308 0
73 1 -0.0670405 29.277 0
74 1 8.20727 6.30456 0
75 1 23.1775 14.6014 0
76 1 17.0199 3.40496 0
77 1 2.29518 24.8708 0
78 1 29.4654 16.7683 0
79 1 20.0901 12.0721 0
80 1 8.37909 2.884 0
81 1 0.168472 7.00919 0
82 1 29.4634 3.77555 0
83 1 22.5421 17.9648 0
84 1 29.3446 27.3873 0
85 1 14.5595 15.9728 0
86 1 3.13501 20.6123 0
87 1 4.1762 0.710052 0
88 1 24.4529 21.7515 0
89 1 26.4156 21.7802 0
90 1 16.3373 1.25494 0
91 1 19.0705 5.33946 0
92 1 4.58952 18.8062 0
93 1 27.7889 6.45461 0
94 1 28.8272 14.8537 0
95 1 25.6581 0.995224 0
96 1 27.5818 0.458374 0
97 1 27.0122 2.31058 0
98 1 8.12849 28.3417 0
99 1 15.4622 14.5227 0
100 1 17.4394 25.8099 0
101 1 13.3225 3.24528 0
102 1 10.5199 2.17397 0
103 1 18.0812 17.2338 0
104 1 15.3287 3.724 0
105 1 18.9183 18.1551 0
106 1 5.83493 22.6353 0
107 1 12.4034 26.5295 0
108 1 0.609693 12.3969 0
109 1 21.4767 12.5657 0
110 1 19.8777 24.241 0
111 1 10.6286 5.17444 0
112 1 2.67284 15.4616 0
113 1 3.74907 12.9362 0
114 1 3.9963 17.2358 0
115 1 25.5705 3.21514 0
116 1 5.08209 7.39019 0
117 1 15.1496 11.8402 0
118 1 21.3722 22.507 0
119 1 23.8661 13.1377 0
120 1 24.9185 26.5451 0
121 1 24.7877 29.5809 0
122 1 21.5264 6.22882 0
123 1 23.9432 9.21004 0
124 1 2.48848 0.182454 0
125 1 14.6837 26.9587 0
126 1 16.8704 21.0911 0
127 1 11.3387 3.13067 0
128 1 26.5035 27.9776 0
129 1 21.5456 19.9599 0
130 1 29.3285 22.0666 0
131 1 24.0849 1.28414 0
132 1 25.4692 20.8047 0
133 1 0.224611 14.2582 0
134 1 16.6662 24.9416 0
135 1 3.55481 6.25581 0
136 1 5.05284 6.53475 0
137 1 22.6908 12.4685 0
138 1 24.7978 11.4565 0
139 1 2.28016 8.66985 0
140 1 10.3308 28.5508 0
141 1 6.37112 12.5665 0
142 1 3.19288 11.8824 0
143 1 21.2021 2.3071 0
144 1 27.8702 12.8987 0
145 1 16.5822 9.06785 0
146 1 12.9397 12.2753 0
147 1 23.5515 5.11689 0
148 1 18.6838 22.1716 0
149 1 21.7247 0.515777 0
150 1 9.34913 13.1445 0
151 1 16.659 16.4246 0
152 1 5.43557 17.5242 0
153 1 6.68572 25.7527 0
154 1 15.391 0.0765961 0
155 1 15.9244 26.4848 0
156 1 22.336 22.4258 0
157 1 20.8642 13.5955 0
158 1 13.8549 12.8628 0
159 1 5.67354 21.4547 0
160 1 0.0470377 25.5122 0
161 1 20.0021 17.8764 0
162 1 13.3999 18.1577 0
163 1 26.091 19.9748 0
164 1 15.8185 9.87784 0
165 1 12.9761 18.9467 0
166 1 25.5829 9.83027 0
167 1 18.8789 14.3643 0
168 1 26.0546 17.6178 0
169 1 2.4057 17.6266 0
170 1 27.3015 15.2027 0
171 1 5.26666 23.8202 0
172 1 13.4076 5.8863 0
173 1 9.11598 6.43506 0
174 1 8.55648 11.6304 0
175 1 17.8401 10.411 0
176 1 21.0605 29.573 0
177 1 17.0879 22.3077 0
178 1 9.53237 15.2866 0
179 1 24.8458 18.6389 0
180 1 22.3067 13.5212 0
181 1 5.25951 29.1353 0
182 1 28.2769 2.38042 0
183 1 24.3704 5.63363 0
184 1 2.51087 16.4405 0
185 1 19.9734 4.60554 0
186 1 11.5943 18.8002 0
187 1 27.3333 11.5263 0
188 1 1.33084 27.3874 0
189 1 26.8817 3.31098 0
190 1 26.2482 24.6162 0
191 1 1.98045 5.68403 0
192 1 6.3748 13.6503 0
193 1 25.9568 18.9158 0
194 1 24.6143 24.5118 0
ITEM: TIMESTEP
2610
ITEM: NUMBER OF ATOMS
194
ITEM: BOX BOUNDS pp pp pp
0.0000000000000000e+00 3.0000000000000000e+01
0.0000000000000000e+00 3.0000000000000000e+01
-5.0000000000000000e-01 5.0000000000000000e-01
ITEM: ATOMS id type x y z
1 1 17.7783 9.51214 0
2 1 20.1703 2.48965 0
3 1 13.1391 15.9419 0
4 1 3.30562 1.97657 0
5 1 28.0065 23.7269 0
6 1 14.4316 5.22257 0
7 1 14.1374 24.5602 0
8 1 20.3674 23.1351 0
9 1 5.64446 18.6051 0
10 1 25.7409 11.6348 0
11 1 25.9134 5.16985 0
12 1 25.891 13.5011 0
13 1 20.8225 24.6796 0
14 1 0.182214 24.3813 0
15 1 8.82248 4.29475 0
16 1 18.4306 19.3304 0
17 1 3.48055 24.1082 0
18 1 17.9685 0.717053 0
19 1 24.3024 28.7272 0
20 1 9.10825 24.9779 0
21 1 18.7216 27.0881 0
22 1 25.8583 1.79747 0
23 1 28.5924 0.0692696 0
24 1 18.8072 1.83042 0
25 1 28.2151 4.90002 0
26 1 26.885 5.69408 0
27 1 5.94502 14.6716 0
28 1 22.8992 26.5237 0
29 1 15.1142 9.46275 0
30 1 24.0451 27.5212 0
31 1 15.6964 3.00833 0
32 1 26.7402 1.43422 0
33 1 5.53481 27.6804 0
34 1 6.27498 15.547 0
35 1 20.6236 28.3388 0
36 1 12.9132 14.8777 0
37 1 19.0516 11.4287 0
38 1 28.192 3.66008 0
39 1 28.8997 11.2421 0
40 1 16.1242 8.2915 0
41 1 5.86001 9.74094 0
42 1 21.8763 15.9276 0
43 1 7.32327 16.5006 0
44 1 4.03628 19.2678 0
45 1 2.09852 2.48801 0
46 1 5.82738 1.52592 0
47 1 15.5774 16.368 0
48 1 0.576045 26.7696 0
49 1 21.4844 5.13454 0
50 1 17.3147 28.9927 0
51 1 24.9632 8.43332 0
52 1 3.19652 10.3671 0
53 1 13.2296 20.4521 0
54 1 7.31909 23.56 0
55 1 22.2204 3.71201 0
56 1 1.90263 21.3316 0
57 1 20.744 3.26528 0
58 1 1.05427 10.049 0
59 1 21.1698 1.34169 0
60 1 4.36884 22.9082 0
61 1 29.7096 5.87706 0
62 1 13.705 10.1168 0
63 1 10.4465 24.1748 0
64 1 13.8507 13.7887 0
65 1 21.4223 14.6326 0
66 1 10.9307 13.4482 0
67 1 7.71971 7.96704 0
68 1 9.15505 16.4475 0
69 1 14.6117 21.4544 0
70 1 17.4431 23.6723 0
71 1 25.8884 15.6156 0
72 1 23.628 23.8766 0
73 1 29.537 29.6001 0
74 1 8.12269 6.40806 0
75 1 23.0991 14.6748 0
76 1 17.1864 3.60203 0
77 1 2.19495 24.761 0
78 1 29.6824 17.064 0
79 1 20.5155 12.1436 0
80 1 8.51667 2.97726 0
81 1 29.7196 6.89168 0
82 1 29.6636 3.71765 0
83 1 22.1014 18.0082 0
84 1 29.386 27.9813 0
85 1 14.7704 16.3326 0
86 1 3.47654 21.0948 0
87 1 4.33795 1.1218 0
88 1 24.5194 21.5901 0
89 1 26.3475 21.362 0
90 1 16.3919 1.35332 0
91 1 18.8975 5.55384 0
92 1 4.91488 19.1156 0
93 1 27.5479 6.45597 0
94 1 28.8849 14.4888 0
95 1 25.9074 0.829039 0
96 1 27.567 0.518646 0
97 1 27.4339 2.71541 0
98 1 7.74776 28.0971 0
99 1 15.1796 14.3413 0
100 1 16.986 25.9922 0
101 1 12.8569 3.55309 0
102 1 10.8898 1.84944 0
103 1 18.25 17.4389 0
104 1 15.6014 4.0937 0
105 1 19.1914 18.1497 0
106 1 5.8758 22.7706 0
107 1 12.4921 26.4028 0
108 1 0.543461 12.4325 0
109 1 21.2676 12.668 0
110 1 19.5832 24.0281 0
111 1 10.2959 4.94675 0
112 1 2.82189 14.9449 0
113 1 3.42631 12.9018 0
114 1 3.97521 17.1027 0
115 1 25.4181 3.24698 0
116 1 5.15532 7.68868 0
117 1 15.5798 11.7373 0
118 1 21.3765 22.3167 0
119 1 23.6559 12.9017 0
120 1 24.9472 26.6765 0
121 1 24.874 29.6907 0
122 1 21.5169 6.46396 0
123 1 23.8368 9.33013 0
124 1 2.26956 0.242048 0
125 1 14.3969 27.2576 0
126 1 16.9692 21.1134 0
127 1 11.574 3.21578 0
128 1 26.6509 27.9473 0
129 1 21.5361 20.1531 0
130 1 29.7087 22.3494 0
131 1 24.0185 1.42108 0
132 1 25.4099 20.4242 0
133 1 0.233258 14.0815 0
134 1 16.3774 24.9707 0
135 1 3.66587 6.59644 0
136 1 4.59099 6.56757 0
137 1 22.5556 12.2933 0
138 1 24.1855 10.7727 0
139 1 2.04702 9.28143 0
140 1 10.5284 28.0937 0
141 1 6.14403 12.293 0
142 1 3.30711 12.0098 0
143 1 21.1208 2.49283 0
144 1 27.832 12.8322 0
145 1 16.5437 9.15476 0
146 1 12.4907 12.2373 0
147 1 23.5239 5.24799 0
148 1 18.8919 22.3366 0
149 1 21.7616 0.624639 0
150 1 9.41017 12.9035 0
151 1 16.5872 16.3524 0
152 1 5.36827 17.7711 0
153 1 6.79971 25.9693 0
154 1 15.036 0.10863 0
155 1 15.817 26.3316 0
156 1 22.8649 22.4173 0
157 1 20.5747 13.3401 0
158 1 13.6494 12.4169 0
159 1 5.36367 21.5775 0
160 1 -0.00516955 25.5008 0
161 1 20.0913 17.8371 0
162 1 13.6977 17.7199 0
163 1 26.2263 19.9185 0
164 1 15.7606 10.0839 0
165 1 13.2167 18.7918 0
166 1 25.2469 9.67531 0
167 1 19.2196 14.2017 0
168 1 26.0767 17.361 0
169 1 2.08804 17.526 0
170 1 27.2178 15.106 0
171 1 5.58871 23.9848 0
172 1 13.6558 5.71352 0
173 1 9.21514 6.70309 0
174 1 8.69704 11.8144 0
175 1 17.9201 10.5661 0
176 1 21.2896 29.6177 0
177 1 16.9015 22.8732 0
178 1 9.70615 15.282 0
179 1 24.8751 18.2173 0
180 1 22.0232 13.1716 0
181 1 5.32632 29.6604 0
182 1 28.2488 2.46413 0
183 1 24.4194 5.63368 0
184 1 2.62233 16.3253 0
185 1 20.1688 4.19349 0
186 1 11.6346 18.3285 0
187 1 27.3604 10.7725 0
188 1 1.56385 27.2194 0
189 1 26.9558 3.68824 0
190 1 26.4107 24.6703 0
191 1 1.99845 5.83674 0
192 1 6.53015 13.5941 0
193 1 26.1797 18.8864 0
194 1 24.7999 24.8582 0
ITEM: TIMESTEP
2625
ITEM: NUMBER OF ATOMS
194
ITEM: BOX BOUNDS pp pp pp
0.0000000000000000e+00 3.0000000000000000e+01
0.0000000000000000e+00 3.0000000000000000e+01
-5.0000000000000000e-01 5.0000000000000000e-01
ITEM: ATOMS id type x y z
1 1 17.4539 9.38107 0
2 1 20.0609 2.73922 0
3 1 13.4636 15.6727 0
4 1 3.07823 2.11488 0
5 1 27.6325 23.8577 0
6 1 14.82 5.10638 0
7 1 14.5034 24.6769 0
8 1 20.3738 23.5201 0
9 1 5.90584 18.7781 0
10 1 25.9295 11.5325 0
11 1 25.8978 4.9557 0
12 1 25.8211 13.3246 0
13 1 20.2583 24.9504 0
14 1 -0.050968 24.6349 0
15 1 8.55553 4.18219 0
16 1 18.2591 19.2234 0
17 1 3.73016 24.1445 0
18 1 17.7941 0.91203 0
19 1 24.6486 29.1485 0
20 1 9.31339 25.0948 0
21 1 18.6218 26.6538 0
22 1 25.7122 1.80256 0
23 1 28.295 0.204521 0
24 1 18.6923 1.71912 0
25 1 27.9043 4.74724 0
26 1 26.417 5.74779 0
27 1 6.07976 14.6316 0
28 1 22.8109 26.4965 0
29 1 15.3582 9.4488 0
30 1 24.3334 27.4773 0
31 1 15.8102 3.36936 0
32 1 26.6521 1.51078 0
33 1 5.60539 27.4036 0
34 1 6.30244 15.948 0
35 1 20.3561 27.9354 0
36 1 12.7707 14.7551 0
37 1 18.7257 11.7202 0
38 1 28.204 3.8301 0
39 1 29.3319 11.1133 0
40 1 16.1887 8.26535 0
41 1 6.01691 9.87508 0
42 1 21.9127 15.7494 0
43 1 7.15109 16.2874 0
44 1 4.16844 19.1557 0
45 1 1.85452 2.30912 0
46 1 5.98577 2.04154 0
47 1 15.7469 16.3118 0
48 1 0.850615 26.9256 0
49 1 21.3823 4.86823 0
50 1 17.6504 29.2075 0
51 1 24.7196 8.29848 0
52 1 3.42518 10.7436 0
53 1 13.5026 20.2168 0
54 1 7.36894 23.701 0
55 1 22.4619 3.02003 0
56 1 2.12446 20.9097 0
57 1 20.9163 3.31261 0
58 1 1.07201 10.1154 0
59 1 21.116 1.28254 0
60 1 4.68914 22.8006 0
61 1 29.8833 5.49383 0
62 1 13.2509 10.1019 0
63 1 10.7143 23.8905 0
64 1 13.5161 13.737 0
65 1 21.0278 14.7535 0
66 1 11.2223 13.0549 0
67 1 7.62973 7.71678 0
68 1 8.88431 16.7795 0
69 1 14.8363 21.357 0
70 1 17.6738 23.8861 0
71 1 25.5151 15.2914 0
72 1 23.7204 23.9225 0
73 1 29.1686 29.9097 0
74 1 7.85979 6.47771 0
75 1 23.0182 14.7473 0
76 1 17.3499 3.79869 0
77 1 2.09713 24.6496 0
78 1 29.8996 17.3597 0
79 1 20.6202 11.9227 0
80 1 8.65508 3.07441 0
81 1 29.2854 6.83257 0
82 1 29.8597 3.65981 0
83 1 21.6601 18.0514 0
84 1 29.4286 28.5759 0
85 1 14.4762 16.6718 0
86 1 3.81795 21.5773 0
87 1 4.4989 1.53608 0
88 1 24.5879 21.4266 0
89 1 26.2753 20.9373 0
90 1 16.4469 1.45158 0
91 1 18.7252 5.76741 0
92 1 5.14094 19.6381 0
93 1 27.3433 6.50407 0
94 1 28.945 14.1228 0
95 1 26.1359 0.537671 0
96 1 27.5183 0.597021 0
97 1 27.3915 3.20674 0
98 1 7.36678 27.8523 0
99 1 14.8937 14.1595 0
100 1 16.5516 26.169 0
101 1 12.4079 3.87325 0
102 1 11.2608 1.52712 0
103 1 17.9919 17.2604 0
104 1 15.8735 4.46941 0
105 1 19.7384 18.6222 0
106 1 5.91227 22.9075 0
107 1 12.5812 26.2762 0
108 1 0.476672 12.4692 0
109 1 21.1132 12.8299 0
110 1 19.2926 23.8135 0
111 1 9.96163 4.71841 0
112 1 2.9707 14.4306 0
113 1 3.12152 13.0443 0
114 1 3.95435 16.9703 0
115 1 25.2689 3.27672 0
116 1 5.23215 8.01278 0
117 1 16.0096 11.6328 0
118 1 21.3805 22.1285 0
119 1 23.4396 12.6639 0
120 1 24.9769 26.806 0
121 1 25.0727 30.008 0
122 1 21.5069 6.70997 0
123 1 23.7422 9.37979 0
124 1 2.05102 0.302241 0
125 1 14.1111 27.5556 0
126 1 17.0681 21.137 0
127 1 11.7916 3.2868 0
128 1 26.798 27.9168 0
129 1 21.5267 20.3463 0
130 1 30.0889 22.6327 0
131 1 23.9534 1.55762 0
132 1 25.2821 20.0984 0
133 1 0.238654 13.9045 0
134 1 16.0906 25.0053 0
135 1 3.43544 6.99076 0
136 1 4.4664 6.52096 0
137 1 22.4356 12.096 0
138 1 23.5649 10.1553 0
139 1 1.8695 9.87029 0
140 1 10.7261 27.6366 0
141 1 5.91795 12.0232 0
142 1 3.40317 11.959 0
143 1 21.343 2.27815 0
144 1 27.7938 12.7654 0
145 1 16.5402 9.32993 0
146 1 12.0439 12.1999 0
147 1 23.3504 5.30601 0
148 1 19.1006 22.5035 0
149 1 21.8972 0.625827 0
150 1 9.47384 12.6637 0
151 1 16.7128 16.2774 0
152 1 5.10357 17.4571 0
153 1 6.91355 26.1861 0
154 1 14.6817 0.141201 0
155 1 15.6884 26.178 0
156 1 23.3932 22.4096 0
157 1 20.2117 13.1441 0
158 1 13.4424 11.974 0
159 1 5.05382 21.7062 0
160 1 29.9426 25.5201 0
161 1 20.3317 17.7067 0
162 1 13.9956 17.2767 0
163 1 26.4331 19.8431 0
164 1 15.8445 10.4328 0
165 1 13.4498 18.6491 0
166 1 24.9052 9.51653 0
167 1 19.5624 14.0378 0
168 1 26.0965 17.1074 0
169 1 1.77261 17.4211 0
170 1 27.1317 15.01 0
171 1 5.91143 24.143 0
172 1 13.7492 5.64424 0
173 1 9.49205 7.00661 0
174 1 8.83657 11.9979 0
175 1 17.9925 10.8458 0
176 1 21.5185 29.666 0
177 1 16.6758 23.3855 0
178 1 9.88309 15.2612 0
179 1 24.9097 17.7958 0
180 1 22.0678 13.0251 0
181 1 5.39282 30.1861 0
182 1 28.6913 2.44396 0
183 1 24.6157 5.70592 0
184 1 2.73422 16.2126 0
185 1 20.2579 3.91207 0
186 1 11.6766 17.8571 0
187 1 27.389 10.0197 0
188 1 1.8124 27.0558 0
189 1 27.0252 4.08716 0
190 1 26.5722 24.7241 0
191 1 2.01698 5.98981 0
192 1 6.6821 13.539 0
193 1 26.3979 18.8262 0
194 1 24.9852 25.2036 0
ITEM: TIMESTEP
2640
ITEM: NUMBER OF ATOMS
194
ITEM: BOX BOUNDS pp pp pp
0.0000000000000000e+00 3.0000000000000000e+01
0.0000000000000000e+00 3.0000000000000000e+01
-5.0000000000000000e-01 5.0000000000000000e-01
ITEM: ATOMS id type x y z
1 1 17.3417 9.24703 0
2 1 19.8764 2.92302 0
3 1 13.7901 15.4054 0
4 1 2.84756 2.25277 0
5 1 27.2575 23.9888 0
6 1 15.2104 4.98649 0
7 1 14.8716 24.7946 0
8 1 20.3788 23.9058 0
9 1 6.28802 18.8481 0
10 1 26.1184 11.4308 0
11 1 25.8294 4.66815 0
12 1 25.7515 13.1478 0
13 1 19.6924 25.2164 0
14 1 29.7165 24.6659 0
15 1 8.28906 4.07518 0
16 1 18.0891 19.1153 0
17 1 3.97971 24.1798 0
18 1 17.6194 1.10977 0
19 1 24.8108 29.2201 0
20 1 9.51904 25.2111 0
21 1 18.522 26.2194 0
22 1 25.4597 1.84479 0
23 1 28.0502 0.265554 0
24 1 18.5755 1.60587 0
25 1 27.7685 4.78946 0
26 1 26.0045 5.87351 0
27 1 6.21702 14.588 0
28 1 22.7235 26.4698 0
29 1 15.54 9.38632 0
30 1 24.4932 27.5734 0
31 1 15.9255 3.728 0
32 1 26.6773 1.55937 0
33 1 5.67762 27.1264 0
34 1 6.10484 16.2927 0
35 1 20.0886 27.5322 0
36 1 12.6323 14.6292 0
37 1 18.4037 12.0189 0
38 1 28.2815 3.93521 0
39 1 29.7651 10.9849 0
40 1 16.2488 8.23534 0
41 1 6.17364 10.0091 0
42 1 21.9483 15.5662 0
43 1 7.20433 16.1301 0
44 1 4.26808 19.0399 0
45 1 1.61573 2.12905 0
46 1 6.14213 2.55606 0
47 1 15.8846 16.2563 0
48 1 1.05749 27.0714 0
49 1 21.2781 4.59925 0
50 1 17.9861 29.4235 0
51 1 24.475 8.17082 0
52 1 3.6581 11.0831 0
53 1 13.7763 19.9802 0
54 1 7.41521 23.8421 0
55 1 22.6979 2.326 0
56 1 2.34708 20.4882 0
57 1 21.4247 3.18765 0
58 1 0.707593 10.3158 0
59 1 20.9923 1.2318 0
60 1 5.01008 22.7152 0
61 1 0.0558682 5.11179 0
62 1 12.7971 10.0876 0
63 1 10.9816 23.6067 0
64 1 13.1816 13.689 0
65 1 20.6348 14.8749 0
66 1 11.3892 12.8676 0
67 1 7.54015 7.46814 0
68 1 8.61332 17.1103 0
69 1 15.0603 21.259 0
70 1 17.919 24.1118 0
71 1 25.1436 14.9671 0
72 1 23.8131 23.9671 0
73 1 29.0151 0.152626 0
74 1 7.59832 6.54598 0
75 1 22.9346 14.8211 0
76 1 17.5104 3.99553 0
77 1 2.00011 24.5379 0
78 1 0.117606 17.6554 0
79 1 20.5545 11.523 0
80 1 8.79563 3.16736 0
81 1 28.8517 6.77116 0
82 1 0.0532836 3.60199 0
83 1 21.2321 18.106 0
84 1 29.4703 29.1746 0
85 1 14.7078 16.2838 0
86 1 4.04026 22.0802 0
87 1 4.66052 1.95057 0
88 1 24.657 21.2619 0
89 1 26.1851 20.543 0
90 1 16.5047 1.54894 0
91 1 18.5531 5.98079 0
92 1 5.2785 20.267 0
93 1 27.1373 6.54995 0
94 1 29.009 13.7553 0
95 1 26.3743 0.237468 0
96 1 27.1999 0.812374 0
97 1 27.3514 3.58908 0
98 1 6.98459 27.6058 0
99 1 14.6043 13.9772 0
100 1 16.3965 26.3431 0
101 1 12.1653 4.39622 0
102 1 11.6321 1.2056 0
103 1 17.7329 17.0813 0
104 1 16.1502 4.84755 0
105 1 20.2059 19.1561 0
106 1 5.94652 23.0483 0
107 1 12.6704 26.15 0
108 1 0.408696 12.5083 0
109 1 20.933 13.0163 0
110 1 19.0017 23.6004 0
111 1 9.62473 4.48889 0
112 1 3.12769 13.9477 0
113 1 2.80751 13.1934 0
114 1 3.93101 16.8367 0
115 1 25.1214 3.30504 0
116 1 5.30819 8.33565 0
117 1 16.4481 11.5447 0
118 1 21.384 21.9404 0
119 1 23.219 12.4264 0
120 1 25.1348 26.7945 0
121 1 25.4409 0.676688 0
122 1 21.4969 6.95493 0
123 1 23.7517 8.80453 0
124 1 1.83261 0.363118 0
125 1 13.8253 27.8532 0
126 1 17.1669 21.1607 0
127 1 11.8025 3.15447 0
128 1 26.9447 27.8862 0
129 1 21.5171 20.5404 0
130 1 0.469042 22.9164 0
131 1 23.8893 1.69424 0
132 1 25.1546 19.7794 0
133 1 0.239791 13.7251 0
134 1 15.8036 25.0469 0
135 1 3.04268 7.41951 0
136 1 4.5043 6.44085 0
137 1 22.3301 11.863 0
138 1 22.8398 10.1576 0
139 1 2.07437 10.3263 0
140 1 10.9238 27.1793 0
141 1 5.6924 11.7544 0
142 1 3.49497 11.9076 0
143 1 21.6518 1.98947 0
144 1 27.7558 12.6992 0
145 1 16.3561 9.52498 0
146 1 11.7248 11.9562 0
147 1 23.1786 5.36456 0
148 1 19.3112 22.6726 0
149 1 22.0962 0.606422 0
150 1 9.70233 12.5728 0
151 1 16.9189 16.2009 0
152 1 4.83892 17.1429 0
153 1 7.02688 26.4048 0
154 1 14.3275 0.17391 0
155 1 15.2795 26.0175 0
156 1 23.923 22.4024 0
157 1 19.7651 12.9459 0
158 1 13.2317 11.532 0
159 1 4.8649 21.7954 0
160 1 29.8908 25.763 0
161 1 20.6363 17.5041 0
162 1 13.7163 17.5621 0
163 1 26.6575 19.767 0
164 1 15.9561 10.8031 0
165 1 13.6838 18.5058 0
166 1 24.5648 9.35631 0
167 1 19.8966 13.9176 0
168 1 26.1127 16.8562 0
169 1 1.4579 17.3142 0
170 1 27.0441 14.914 0
171 1 6.23587 24.2946 0
172 1 13.8377 5.57787 0
173 1 9.76708 7.30967 0
174 1 8.81224 12.0326 0
175 1 18.0602 11.1164 0
176 1 21.7354 29.6862 0
177 1 16.4372 23.8868 0
178 1 10.0595 15.2414 0
179 1 24.9487 17.3729 0
180 1 22.3915 13.0295 0
181 1 5.45854 0.713603 0
182 1 29.1366 2.42658 0
183 1 24.8134 5.77623 0
184 1 2.84774 16.1026 0
185 1 20.0255 3.98769 0
186 1 11.7193 17.3859 0
187 1 27.4176 9.2672 0
188 1 2.12756 26.901 0
189 1 26.8459 4.46566 0
190 1 26.7336 24.7781 0
191 1 2.03617 6.14348 0
192 1 6.83085 13.4875 0
193 1 26.6131 18.7306 0
194 1 25.1711 25.5502 0
ITEM: TIMESTEP
2655
ITEM: NUMBER OF ATOMS
194
ITEM: BOX BOUNDS pp pp pp
0.0000000000000000e+00 3.0000000000000000e+01
0.0000000000000000e+00 3.0000000000000000e+01
-5.0000000000000000e-01 5.0000000000000000e-01
ITEM: ATOMS id type x y z
1 1 17.3358 9.09734 0
2 1 19.6927 3.09279 0
3 1 14.1177 15.1375 0
4 1 2.61226 2.38974 0
5 1 26.9575 23.9636 0
6 1 15.5047 4.87279 0
7 1 14.8583 24.7926 0
8 1 20.3783 24.292 0
9 1 6.66874 18.9191 0
10 1 26.3073 11.3301 0
11 1 25.5784 4.36451 0
12 1 25.6825 12.9706 0
13 1 19.1397 25.4725 0
14 1 29.4821 24.6578 0
15 1 8.01855 3.98463 0
16 1 17.9193 19.007 0
17 1 4.22968 24.2141 0
18 1 17.4385 1.30234 0
19 1 24.9739 29.2921 0
20 1 9.7249 25.3273 0
21 1 18.4095 25.7913 0
22 1 25.176 1.96055 0
23 1 27.7414 0.306449 0
24 1 18.4674 1.49625 0
25 1 27.9144 5.04378 0
26 1 25.7281 6.02695 0
27 1 6.35728 14.5416 0
28 1 22.6365 26.4433 0
29 1 15.3237 9.25326 0
30 1 24.5769 27.7571 0
31 1 16.0423 4.08996 0
32 1 26.5557 1.83741 0
33 1 5.75431 26.849 0
34 1 5.80966 16.6241 0
35 1 19.8208 27.1287 0
36 1 12.4905 14.5184 0
37 1 18.1063 12.3864 0
38 1 28.4417 4.00036 0
39 1 29.9332 11.11 0
40 1 16.3092 8.21508 0
41 1 6.32982 10.1434 0
42 1 21.983 15.3803 0
43 1 7.35315 15.9861 0
44 1 4.36968 18.925 0
45 1 1.38209 1.94875 0
46 1 6.29673 3.06951 0
47 1 15.9868 16.2031 0
48 1 1.24681 27.2167 0
49 1 21.1712 4.32552 0
50 1 18.3218 29.6407 0
51 1 24.4461 7.8922 0
52 1 3.95945 11.0689 0
53 1 14.0504 19.7409 0
54 1 7.45751 23.9836 0
55 1 22.9388 1.63179 0
56 1 2.56992 20.0666 0
57 1 21.9332 3.05878 0
58 1 0.594981 10.2677 0
59 1 20.8438 1.13501 0
60 1 5.26393 22.7124 0
61 1 0.227937 4.72736 0
62 1 12.3441 10.0763 0
63 1 11.2487 23.3231 0
64 1 12.8562 13.6284 0
65 1 20.2425 14.9952 0
66 1 11.3471 13.0588 0
67 1 7.44663 7.42608 0
68 1 8.34154 17.4404 0
69 1 15.2841 21.1604 0
70 1 18.163 24.3383 0
71 1 24.7728 14.6426 0
72 1 23.906 24.01 0
73 1 28.9751 0.416772 0
74 1 7.34106 6.40773 0
75 1 22.8494 14.8955 0
76 1 17.6678 4.19322 0
77 1 1.9031 24.4261 0
78 1 0.338846 17.95 0
79 1 20.4892 11.1274 0
80 1 8.94496 3.24695 0
81 1 28.4169 6.709 0
82 1 0.244552 3.54466 0
83 1 21.0068 18.38 0
84 1 29.5435 29.7237 0
85 1 14.9959 15.8187 0
86 1 3.84638 22.6799 0
87 1 4.82459 2.36341 0
88 1 24.7258 21.0983 0
89 1 26.0114 20.284 0
90 1 16.5608 1.64725 0
91 1 18.3808 6.19392 0
92 1 5.41622 20.8916 0
93 1 26.9284 6.59249 0
94 1 29.0774 13.3864 0
95 1 26.6166 -0.0940573 0
96 1 26.9686 0.874521 0
97 1 27.2852 3.90781 0
98 1 6.59405 27.3702 0
99 1 14.3108 13.7962 0
100 1 16.2835 26.5177 0
101 1 11.9409 4.94269 0
102 1 12.0035 0.884551 0
103 1 17.4829 16.9201 0
104 1 16.522 5.21653 0
105 1 20.6759 19.687 0
106 1 6.05996 23.2292 0
107 1 12.7595 26.0242 0
108 1 0.339336 12.5487 0
109 1 20.7626 13.1954 0
110 1 18.686 23.4443 0
111 1 9.28308 4.25622 0
112 1 3.44147 13.844 0
113 1 2.33852 12.9598 0
114 1 3.76373 16.6586 0
115 1 24.976 3.33279 0
116 1 5.38439 8.65863 0
117 1 16.9932 11.6099 0
118 1 21.3875 21.7496 0
119 1 23.0521 12.1576 0
120 1 25.3691 26.7181 0
121 1 25.8105 1.27699 0
122 1 21.487 7.19964 0
123 1 23.511 8.3484 0
124 1 1.61417 0.425162 0
125 1 13.5393 28.1505 0
126 1 17.2655 21.1843 0
127 1 11.7953 2.99837 0
128 1 27.0911 27.8556 0
129 1 21.5067 20.7368 0
130 1 0.849142 23.2008 0
131 1 23.8346 1.83189 0
132 1 25.034 19.4647 0
133 1 0.236145 13.5436 0
134 1 15.9015 25.2149 0
135 1 2.65032 7.84634 0
136 1 4.54102 6.36185 0
137 1 22.2081 11.6162 0
138 1 22.1119 10.1717 0
139 1 2.29403 10.7794 0
140 1 11.1219 26.7218 0
141 1 5.46677 11.485 0
142 1 3.51583 12.2131 0
143 1 21.9739 1.74602 0
144 1 27.7184 12.6339 0
145 1 16.4628 9.80507 0
146 1 11.6164 11.3333 0
147 1 23.0078 5.42346 0
148 1 19.5504 22.7866 0
149 1 22.3126 0.645484 0
150 1 10.0234 12.5543 0
151 1 17.1491 16.1051 0
152 1 4.7169 16.8701 0
153 1 7.14404 26.6127 0
154 1 13.9733 0.206529 0
155 1 14.8251 25.8524 0
156 1 24.4549 22.3936 0
157 1 19.3204 12.6649 0
158 1 13.0179 11.0883 0
159 1 5.08107 21.674 0
160 1 29.8421 26.0452 0
161 1 20.7359 17.0857 0
162 1 13.3382 17.6781 0
163 1 26.9594 19.5847 0
164 1 15.9646 11.0122 0
165 1 13.9585 18.6077 0
166 1 24.2614 9.21726 0
167 1 20.2228 13.8847 0
168 1 26.1244 16.6071 0
169 1 1.14058 17.2079 0
170 1 26.9559 14.8178 0
171 1 6.56159 24.44 0
172 1 13.9286 5.51011 0
173 1 10.0417 7.61268 0
174 1 8.69677 11.9952 0
175 1 18.1025 11.3187 0
176 1 21.9312 29.6549 0
177 1 16.2015 24.3864 0
178 1 10.2358 15.2217 0
179 1 24.9927 16.9481 0
180 1 22.6745 13.0789 0
181 1 5.52282 1.24404 0
182 1 29.5828 2.41232 0
183 1 24.8832 5.82137 0
184 1 2.96452 15.9954 0
185 1 19.7981 4.07887 0
186 1 11.7625 16.9149 0
187 1 27.4462 8.51475 0
188 1 2.45955 26.7459 0
189 1 26.5054 4.74864 0
190 1 26.8188 24.9887 0
191 1 2.05623 6.29828 0
192 1 6.97685 13.4403 0
193 1 26.8251 18.6031 0
194 1 25.3576 25.8749 0
ITEM: TIMESTEP
2670
ITEM: NUMBER OF ATOMS
194
ITEM: BOX BOUNDS pp pp pp
0.0000000000000000e+00 3.0000000000000000e+01
0.0000000000000000e+00 3.0000000000000000e+01
-5.0000000000000000e-01 5.0000000000000000e-01
ITEM: ATOMS id type x y z
1 1 17.3288 8.94456 0
2 1 19.5037 3.20828 0
3 1 14.438 14.8607 0
4 1 2.3725 2.52494 0
5 1 26.6944 23.8343 0
6 1 15.5906 4.97257 0
7 1 14.6184 24.6991 0
8 1 20.3752 24.678 0
9 1 7.04934 18.99 0
10 1 26.4963 11.2306 0
11 1 25.1503 4.07843 0
12 1 25.614 12.7932 0
13 1 19.1516 25.5038 0
14 1 29.2489 24.6526 0
15 1 7.75374 3.89449 0
16 1 17.7495 18.8986 0
17 1 4.47962 24.2456 0
18 1 17.3828 1.43288 0
19 1 25.1377 29.3629 0
20 1 9.93119 25.4438 0
21 1 17.7319 25.5829 0
22 1 24.7966 2.24334 0
23 1 27.5171 0.289682 0
24 1 18.3801 1.38997 0
25 1 28.0547 5.29495 0
26 1 25.8882 6.26543 0
27 1 6.50067 14.4917 0
28 1 22.5497 26.4169 0
29 1 15.0743 9.10933 0
30 1 24.6636 27.9391 0
31 1 16.3335 4.23988 0
32 1 26.5949 2.46015 0
33 1 5.72582 26.4758 0
34 1 5.55342 16.9589 0
35 1 19.5523 26.7237 0
36 1 12.3186 14.4861 0
37 1 17.8145 12.7781 0
38 1 28.6049 4.0664 0
39 1 29.784 11.5524 0
40 1 16.3708 8.20208 0
41 1 6.48446 10.2784 0
42 1 21.938 15.2316 0
43 1 7.50023 15.8426 0
44 1 4.47139 18.81 0
45 1 1.15217 1.7684 0
46 1 6.45044 3.58218 0
47 1 16.1002 16.1535 0
48 1 1.43954 27.36 0
49 1 21.0617 4.04855 0
50 1 18.6571 29.8592 0
51 1 24.578 7.5112 0
52 1 4.26916 11.0245 0
53 1 14.3331 19.6005 0
54 1 7.57276 24.0805 0
55 1 23.2566 0.998178 0
56 1 2.793 19.6449 0
57 1 22.4408 2.92635 0
58 1 0.801532 9.90559 0
59 1 20.7004 1.03819 0
60 1 5.43714 22.7423 0
61 1 0.398942 4.35645 0
62 1 11.9034 10.0496 0
63 1 11.5157 23.0395 0
64 1 12.5634 13.4893 0
65 1 19.8515 15.1171 0
66 1 11.3043 13.2486 0
67 1 7.35627 7.49911 0
68 1 8.06902 17.7699 0
69 1 15.5079 21.0613 0
70 1 18.4007 24.5815 0
71 1 24.402 14.3179 0
72 1 23.9994 24.0518 0
73 1 28.8067 0.844976 0
74 1 7.08059 6.15442 0
75 1 22.843 14.9317 0
76 1 17.8222 4.39251 0
77 1 1.80499 24.313 0
78 1 0.558732 18.2472 0
79 1 20.4254 10.7324 0
80 1 9.08232 3.21313 0
81 1 27.9788 6.64598 0
82 1 0.433627 3.46935 0
83 1 20.7985 18.6835 0
84 1 29.7426 0.108806 0
85 1 15.2822 15.3542 0
86 1 3.65517 23.2821 0
87 1 4.99229 2.77298 0
88 1 24.796 20.9363 0
89 1 25.8236 20.0335 0
90 1 16.4715 1.8033 0
91 1 18.2081 6.4066 0
92 1 5.81384 20.987 0
93 1 26.7228 6.6345 0
94 1 29.1501 13.0154 0
95 1 26.8382 29.5445 0
96 1 26.7439 0.903753 0
97 1 27.218 4.23037 0
98 1 6.25989 27.3053 0
99 1 14.0136 13.6192 0
100 1 16.1677 26.6891 0
101 1 11.7168 5.48846 0
102 1 12.3754 0.563596 0
103 1 17.3117 16.9634 0
104 1 16.9305 5.58327 0
105 1 21.1217 20.1749 0
106 1 6.28248 23.4767 0
107 1 12.8484 25.8988 0
108 1 0.274463 12.5051 0
109 1 20.7921 13.0834 0
110 1 18.3621 23.3006 0
111 1 8.94698 4.1363 0
112 1 3.76759 13.7603 0
113 1 1.85932 12.7024 0
114 1 3.5545 16.5345 0
115 1 24.8089 3.31041 0
116 1 5.46118 8.9823 0
117 1 17.4306 11.7325 0
118 1 21.3704 21.7075 0
119 1 22.9588 11.855 0
120 1 25.6077 27.0111 0
121 1 26.0441 1.49018 0
122 1 21.4774 7.44434 0
123 1 23.1044 7.99437 0
124 1 1.39518 0.489653 0
125 1 13.2534 28.4479 0
126 1 17.3638 21.2078 0
127 1 11.7882 2.84279 0
128 1 27.2371 27.8251 0
129 1 21.5419 20.8234 0
130 1 1.23019 23.4869 0
131 1 23.8837 1.99561 0
132 1 24.9181 19.1546 0
133 1 0.221724 13.4439 0
134 1 16.1547 25.7492 0
135 1 2.25756 8.27182 0
136 1 4.57757 6.28302 0
137 1 22.0477 11.3449 0
138 1 21.3839 10.1893 0
139 1 2.51418 11.2334 0
140 1 11.3204 26.2636 0
141 1 5.23999 11.2139 0
142 1 3.52613 12.5524 0
143 1 22.2239 1.52662 0
144 1 27.682 12.5695 0
145 1 16.6011 10.0981 0
146 1 11.5002 10.7297 0
147 1 22.8374 5.48248 0
148 1 19.8069 22.8782 0
149 1 22.4237 0.596993 0
150 1 10.3454 12.5359 0
151 1 17.2972 15.8046 0
152 1 4.68351 16.6263 0
153 1 7.30995 26.7454 0
154 1 13.6185 0.239017 0
155 1 14.3733 25.7017 0
156 1 24.9874 22.3814 0
157 1 18.8748 12.3834 0
158 1 12.7991 10.6424 0
159 1 5.00993 21.9881 0
160 1 29.7932 26.3246 0
161 1 20.8176 16.6413 0
162 1 12.9254 17.6674 0
163 1 27.276 19.4444 0
164 1 15.9587 11.1978 0
165 1 14.2589 18.7371 0
166 1 23.963 9.07814 0
167 1 20.3464 14.1393 0
168 1 26.1326 16.359 0
169 1 0.824815 17.0988 0
170 1 26.8672 14.7217 0
171 1 6.81048 24.6245 0
172 1 14.0206 5.44175 0
173 1 10.3164 7.91569 0
174 1 8.5839 11.9591 0
175 1 18.2673 11.4586 0
176 1 22.1199 29.6071 0
177 1 16.038 24.5999 0
178 1 10.4125 15.202 0
179 1 25.0404 16.5221 0
180 1 22.9202 13.1843 0
181 1 5.58481 1.77881 0
182 1 30.0317 2.402 0
183 1 24.5183 5.77585 0
184 1 2.99731 15.8015 0
185 1 19.5798 4.22487 0
186 1 11.8065 16.4441 0
187 1 27.4749 7.76105 0
188 1 2.78754 26.5923 0
189 1 26.3669 5.06572 0
190 1 26.866 25.3044 0
191 1 2.07681 6.45429 0
192 1 7.12033 13.3975 0
193 1 27.0292 18.4229 0
194 1 25.5389 25.8327 0
ITEM: TIMESTEP
2685
ITEM: NUMBER OF ATOMS
194
ITEM: BOX BOUNDS pp pp pp
0.0000000000000000e+00 3.0000000000000000e+01
0.0000000000000000e+00 3.0000000000000000e+01
-5.0000000000000000e-01 5.0000000000000000e-01
ITEM: ATOMS id type x y z
1 1 17.3163 8.79254 0
2 1 19.3121 3.28663 0
3 1 14.6956 14.5455 0
4 1 2.12933 2.65843 0
5 1 26.4312 23.7075 0
6 1 15.5577 5.21595 0
7 1 14.3881 24.5826 0
8 1 20.3688 25.0652 0
9 1 7.43105 19.0593 0
10 1 26.6854 11.1326 0
11 1 24.881 4.14118 0
12 1 25.5459 12.6154 0
13 1 19.2299 25.4999 0
14 1 29.016 24.6484 0
15 1 7.4982 3.80288 0
16 1 17.5795 18.7899 0
17 1 4.72747 24.2725 0
18 1 17.3817 1.52352 0
19 1 25.3019 29.4317 0
20 1 10.139 25.5611 0
21 1 16.9936 25.3893 0
22 1 24.6542 2.26645 0
23 1 27.383 0.244791 0
24 1 18.3483 1.27762 0
25 1 28.1922 5.54251 0
26 1 25.7967 6.39044 0
27 1 6.64748 14.4382 0
28 1 22.4628 26.3905 0
29 1 14.8278 8.96498 0
30 1 24.7545 28.1202 0
31 1 16.7487 4.25086 0
32 1 26.7435 3.20477 0
33 1 5.60027 25.995 0
34 1 5.41266 17.3251 0
35 1 19.2859 26.3366 0
36 1 12.1338 14.4925 0
37 1 17.5253 13.1651 0
38 1 28.7638 4.13657 0
39 1 29.5461 11.8828 0
40 1 16.4341 8.1933 0
41 1 6.6364 10.4135 0
42 1 21.7806 15.1255 0
43 1 7.64644 15.6985 0
44 1 4.57269 18.6948 0
45 1 0.928162 1.58097 0
46 1 6.60114 4.09519 0
47 1 16.2212 16.1034 0
48 1 1.63386 27.502 0
49 1 20.9497 3.77081 0
50 1 18.9919 30.0802 0
51 1 24.7081 7.13055 0
52 1 4.2713 10.941 0
53 1 14.6467 19.8202 0
54 1 7.80621 24.0951 0
55 1 23.849 0.550788 0
56 1 3.01667 19.2229 0
57 1 22.949 2.78968 0
58 1 1.0081 9.54415 0
59 1 20.56 0.941531 0
60 1 5.73471 23.0409 0
61 1 0.558776 4.22478 0
62 1 11.7767 9.47904 0
63 1 11.7828 22.7559 0
64 1 12.2824 13.31 0
65 1 19.4606 15.2411 0
66 1 11.2626 13.4389 0
67 1 7.26517 7.56901 0
68 1 7.79513 18.1007 0
69 1 15.7318 20.9617 0
70 1 18.6319 24.8217 0
71 1 24.0293 13.9929 0
72 1 24.0931 24.0933 0
73 1 28.6266 1.2812 0
74 1 6.82075 5.90414 0
75 1 22.9489 14.9239 0
76 1 17.9736 4.59364 0
77 1 1.86298 24.4716 0
78 1 0.778102 18.5429 0
79 1 20.0291 10.5171 0
80 1 9.21883 2.96891 0
81 1 27.6277 6.31226 0
82 1 0.641524 3.18762 0
83 1 20.5909 18.9897 0
84 1 29.9514 0.485537 0
85 1 15.6295 14.9243 0
86 1 3.46814 23.8873 0
87 1 5.16088 3.18382 0
88 1 24.8696 20.7737 0
89 1 25.6313 19.7808 0
90 1 16.2732 2.0032 0
91 1 18.0338 6.61802 0
92 1 6.27619 20.9597 0
93 1 26.7544 6.77617 0
94 1 29.225 12.6488 0
95 1 27.0386 29.1625 0
96 1 26.596 0.849057 0
97 1 27.1532 4.55869 0
98 1 6.01941 27.3539 0
99 1 13.7144 13.4467 0
100 1 16.0234 27.1063 0
101 1 11.4929 6.0342 0
102 1 12.5554 0.263816 0
103 1 17.1465 17.0383 0
104 1 17.3383 5.94483 0
105 1 21.1658 20.0438 0
106 1 6.51682 23.736 0
107 1 12.9376 25.7734 0
108 1 0.309122 12.4331 0
109 1 20.8781 12.88 0
110 1 18.0414 23.1581 0
111 1 8.6041 4.22705 0
112 1 4.09487 13.6774 0
113 1 1.3797 12.4436 0
114 1 3.49186 16.5833 0
115 1 24.4787 3.27731 0
116 1 5.53887 9.30738 0
117 1 17.4915 11.9723 0
118 1 21.2802 22.0024 0
119 1 22.8855 11.5664 0
120 1 25.8454 27.3617 0
121 1 26.0221 1.71569 0
122 1 21.4693 7.68927 0
123 1 22.7009 7.64222 0
124 1 1.17389 0.558145 0
125 1 12.9676 28.7464 0
126 1 17.4614 21.2311 0
127 1 11.7812 2.68712 0
128 1 27.382 27.7954 0
129 1 22.0508 21.1893 0
130 1 1.45542 23.5014 0
131 1 23.7131 2.08645 0
132 1 24.8064 18.849 0
133 1 0.195761 13.4787 0
134 1 16.4199 26.123 0
135 1 1.86432 8.69692 0
136 1 4.61415 6.20418 0
137 1 21.8642 11.0585 0
138 1 20.9911 10.0319 0
139 1 2.73511 11.6897 0
140 1 11.5193 25.8042 0
141 1 5.32087 10.9818 0
142 1 3.53335 12.8883 0
143 1 22.4447 1.39741 0
144 1 27.647 12.5052 0
145 1 16.7385 10.3921 0
146 1 11.0679 10.6654 0
147 1 22.668 5.54175 0
148 1 20.0614 22.9711 0
149 1 22.2936 0.373364 0
150 1 10.6698 12.5188 0
151 1 17.4315 15.4726 0
152 1 4.53682 16.3513 0
153 1 7.47935 26.8718 0
154 1 13.4555 0.249406 0
155 1 13.9159 25.5746 0
156 1 25.5195 22.3669 0
157 1 18.4622 12.3064 0
158 1 12.582 10.2013 0
159 1 4.74101 22.1525 0
160 1 29.7444 26.6032 0
161 1 20.8995 16.196 0
162 1 12.513 17.6569 0
163 1 27.595 19.3267 0
164 1 15.9578 11.3796 0
165 1 14.5277 18.5058 0
166 1 23.6625 8.93455 0
167 1 20.4145 14.4837 0
168 1 26.1445 16.11 0
169 1 0.509626 16.9912 0
170 1 26.7781 14.6261 0
171 1 6.93554 24.8853 0
172 1 14.1139 5.37296 0
173 1 10.591 8.21874 0
174 1 8.47156 11.9235 0
175 1 18.7711 11.2798 0
176 1 22.2922 29.4587 0
177 1 15.8858 24.729 0
178 1 10.5902 15.1824 0
179 1 25.0848 16.0961 0
180 1 23.166 13.2887 0
181 1 5.64726 2.31334 0
182 1 0.46937 2.36283 0
183 1 24.1509 5.72982 0
184 1 2.88146 15.4347 0
185 1 19.3662 4.40823 0
186 1 11.851 15.9734 0
187 1 27.4341 7.28248 0
188 1 3.1135 26.4396 0
189 1 26.2297 5.38446 0
190 1 26.9096 25.6188 0
191 1 2.09751 6.61106 0
192 1 7.26143 13.3592 0
193 1 27.2282 18.2214 0
194 1 25.7217 25.7352 0
ITEM: TIMESTEP
2700
ITEM: NUMBER OF ATOMS
194
ITEM: BOX BOUNDS pp pp pp
0.0000000000000000e+00 3.0000000000000000e+01
0.0000000000000000e+00 3.0000000000000000e+01
-5.0000000000000000e-01 5.0000000000000000e-01
ITEM: ATOMS id type x y z
1 1 17.3202 8.65236 0
2 1 19.1208 3.36308 0
3 1 14.9057 14.2076 0
4 1 1.88117 2.79117 0
5 1 26.167 23.5799 0
6 1 15.5243 5.45828 0
7 1 14.1625 24.4602 0
8 1 20.3778 25.4542 0
9 1 7.80043 19.2611 0
10 1 26.875 11.0362 0
11 1 24.6746 4.3292 0
12 1 25.4783 12.4375 0
13 1 19.54 25.3298 0
14 1 28.7831 24.6447 0
15 1 7.32778 3.67727 0
16 1 17.4093 18.6804 0
17 1 4.97359 24.2968 0
18 1 17.3273 1.6256 0
19 1 25.4654 29.4981 0
20 1 10.3504 25.6789 0
21 1 16.3937 25.1607 0
22 1 24.7416 1.94305 0
23 1 27.298 0.170379 0
24 1 18.3703 1.15104 0
25 1 28.5234 5.64298 0
26 1 25.5834 6.46327 0
27 1 6.79801 14.3814 0
28 1 22.3759 26.364 0
29 1 14.5822 8.82031 0
30 1 24.8506 28.3019 0
31 1 17.1666 4.2654 0
32 1 26.8915 3.94975 0
33 1 5.4762 25.5151 0
34 1 5.27326 17.6934 0
35 1 19.0293 26.3641 0
36 1 11.9454 14.496 0
37 1 17.2398 13.5446 0
38 1 28.9211 4.20941 0
39 1 29.3288 11.5158 0
40 1 16.4798 8.1742 0
41 1 6.78367 10.5485 0
42 1 21.6168 15.0208 0
43 1 7.79157 15.553 0
44 1 4.67356 18.578 0
45 1 0.791896 1.31548 0
46 1 6.67033 4.64373 0
47 1 16.347 16.0507 0
48 1 1.8286 27.6433 0
49 1 20.8356 3.49308 0
50 1 19.3255 0.305488 0
51 1 24.8171 6.7569 0
52 1 4.02527 10.8305 0
53 1 14.9623 20.0479 0
54 1 8.03929 24.1055 0
55 1 24.4398 0.10649 0
56 1 3.24172 18.8004 0
57 1 23.2817 2.93094 0
58 1 0.873519 9.45842 0
59 1 20.4196 0.844113 0
60 1 6.01977 23.334 0
61 1 0.712409 4.17664 0
62 1 11.6746 8.85534 0
63 1 12.0498 22.4724 0
64 1 12.0399 13.1227 0
65 1 19.0732 15.3636 0
66 1 11.1882 13.6452 0
67 1 7.17369 7.63773 0
68 1 7.53342 18.2991 0
69 1 15.9553 20.8607 0
70 1 18.6039 24.8108 0
71 1 23.9075 13.8942 0
72 1 24.1872 24.1347 0
73 1 28.4473 1.71516 0
74 1 6.56108 5.65363 0
75 1 23.0598 14.9114 0
76 1 18.1232 4.79549 0
77 1 2.05013 24.8663 0
78 1 0.997415 18.8364 0
79 1 19.5175 10.2219 0
80 1 9.35403 2.72528 0
81 1 27.2576 5.63061 0
82 1 0.938046 3.20724 0
83 1 20.382 19.2962 0
84 1 0.128034 0.853948 0
85 1 16.0254 14.519 0
86 1 3.28378 24.4944 0
87 1 5.30009 3.65122 0
88 1 24.9467 20.6076 0
89 1 25.4329 19.5279 0
90 1 16.0767 2.20242 0
91 1 18.0276 7.04282 0
92 1 6.73797 20.933 0
93 1 26.6106 6.77537 0
94 1 29.1073 12.8114 0
95 1 27.2353 28.7746 0
96 1 26.4605 0.762333 0
97 1 27.0851 4.88181 0
98 1 5.78067 27.3993 0
99 1 13.4131 13.2766 0
100 1 15.8517 27.6676 0
101 1 11.2688 6.58006 0
102 1 12.1749 0.0104298 0
103 1 16.9786 17.1084 0
104 1 17.5779 6.08937 0
105 1 21.1937 19.8865 0
106 1 6.7722 24.0154 0
107 1 12.7567 25.7172 0
108 1 0.23738 12.564 0
109 1 20.9639 12.6779 0
110 1 17.7214 23.0166 0
111 1 8.25743 4.3161 0
112 1 4.46582 13.6469 0
113 1 1.18356 12.1282 0
114 1 3.42244 16.6348 0
115 1 24.068 3.53206 0
116 1 5.61777 9.63582 0
117 1 17.3705 12.1467 0
118 1 21.1675 22.343 0
119 1 22.8118 11.2789 0
120 1 26.0812 27.7137 0
121 1 25.9404 2.00873 0
122 1 21.4627 7.93511 0
123 1 22.2976 7.29017 0
124 1 1.00968 0.448257 0
125 1 12.6817 29.0486 0
126 1 17.5582 21.2547 0
127 1 11.7742 2.53144 0
128 1 27.5244 27.7683 0
129 1 22.5974 21.5367 0
130 1 1.55324 23.2794 0
131 1 23.5061 1.82614 0
132 1 24.6982 18.548 0
133 1 0.164237 13.5342 0
134 1 16.6662 26.4307 0
135 1 1.81227 8.84604 0
136 1 4.65093 6.12531 0
137 1 21.6775 10.7688 0
138 1 20.9565 9.68877 0
139 1 2.95732 12.1494 0
140 1 11.7185 25.3443 0
141 1 5.65241 10.7744 0
142 1 3.49469 13.1687 0
143 1 22.6721 1.3035 0
144 1 27.6132 12.44 0
145 1 16.8735 10.6898 0
146 1 10.6086 10.6499 0
147 1 22.5012 5.60173 0
148 1 20.3173 23.0629 0
149 1 22.1762 0.327765 0
150 1 10.994 12.4996 0
151 1 17.5616 15.1442 0
152 1 4.3949 16.0739 0
153 1 7.64593 26.9985 0
154 1 13.8531 0.209659 0
155 1 13.7233 25.3844 0
156 1 26.052 22.3532 0
157 1 18.2448 12.5272 0
158 1 12.3683 9.76512 0
159 1 4.46846 22.3098 0
160 1 29.6958 26.8817 0
161 1 20.9816 15.7471 0
162 1 12.1004 17.6458 0
163 1 27.9126 19.2071 0
164 1 15.9618 11.5578 0
165 1 14.7956 18.268 0
166 1 23.361 8.78915 0
167 1 20.4831 14.8309 0
168 1 26.1704 15.8599 0
169 1 0.194621 16.8859 0
170 1 26.6881 14.5321 0
171 1 7.05365 25.1448 0
172 1 14.2103 5.3039 0
173 1 10.8647 8.52166 0
174 1 8.35891 11.8883 0
175 1 19.0166 11.144 0
176 1 22.4501 29.1005 0
177 1 15.6403 24.8141 0
178 1 10.772 15.1629 0
179 1 25.116 15.6695 0
180 1 23.1583 13.1691 0
181 1 5.74051 2.79241 0
182 1 0.713314 2.20558 0
183 1 23.7833 5.68503 0
184 1 2.7654 15.0673 0
185 1 19.1505 4.59416 0
186 1 11.8936 15.4995 0
187 1 27.5243 7.49817 0
188 1 3.43873 26.2872 0
189 1 26.1066 5.6891 0
190 1 26.9499 25.9337 0
191 1 2.11819 6.76815 0
192 1 7.40029 13.3253 0
193 1 27.4278 18.0219 0
194 1 25.9079 25.6387 0
ITEM: TIMESTEP
2715
ITEM: NUMBER OF ATOMS
194
ITEM: BOX BOUNDS pp pp pp
0.0000000000000000e+00 3.0000000000000000e+01
0.0000000000000000e+00 3.0000000000000000e+01
-5.0000000000000000e-01 5.0000000000000000e-01
ITEM: ATOMS id type x y z
1 1 17.3932 8.54982 0
2 1 18.9299 3.44538 0
3 1 15.1154 13.869 0
4 1 1.84786 2.79778 0
5 1 25.9023 23.4481 0
6 1 15.4868 5.69979 0
7 1 13.9622 24.2769 0
8 1 20.6973 25.9002 0
9 1 8.17309 19.6121 0
10 1 27.0651 10.9418 0
11 1 24.5144 4.58806 0
12 1 25.4111 12.2596 0
13 1 19.679 25.1402 0
14 1 28.5502 24.6411 0
15 1 7.17574 3.5405 0
16 1 17.2386 18.5694 0
17 1 5.21185 24.2791 0
18 1 17.2673 1.72966 0
19 1 25.7608 29.5133 0
20 1 10.5652 25.796 0
21 1 16.2988 25.1582 0
22 1 24.8294 1.62076 0
23 1 27.2399 0.0727397 0
24 1 18.3987 1.02088 0
25 1 28.9463 5.68669 0
26 1 25.5996 6.60352 0
27 1 6.95251 14.3218 0
28 1 22.2888 26.3374 0
29 1 14.3369 8.67555 0
30 1 24.9525 28.4869 0
31 1 17.5767 4.27374 0
32 1 26.881 3.65184 0
33 1 5.36362 25.0745 0
34 1 5.25723 17.8959 0
35 1 18.7665 26.4661 0
36 1 11.7624 14.2914 0
37 1 17.062 13.8659 0
38 1 29.0778 4.285 0
39 1 29.1462 11.051 0
40 1 16.4571 8.11632 0
41 1 6.9355 10.6824 0
42 1 21.5918 14.7567 0
43 1 7.93518 15.4056 0
44 1 4.64698 18.6264 0
45 1 1.0382 1.35142 0
46 1 6.84109 4.8256 0
47 1 16.4769 15.9989 0
48 1 2.0234 27.7843 0
49 1 20.7202 3.21548 0
50 1 19.5713 0.500513 0
51 1 24.4794 6.53875 0
52 1 3.78078 10.7206 0
53 1 15.2803 20.2767 0
54 1 8.26456 24.1181 0
55 1 24.8987 29.7106 0
56 1 3.46997 18.3771 0
57 1 23.2431 3.06101 0
58 1 0.330323 9.69574 0
59 1 20.3638 0.7803 0
60 1 6.27553 23.6057 0
61 1 0.846787 4.19983 0
62 1 11.9992 8.32478 0
63 1 12.3169 22.1888 0
64 1 11.9071 12.9637 0
65 1 18.6863 15.4844 0
66 1 11.0477 13.8563 0
67 1 7.08208 7.70611 0
68 1 7.26801 18.3486 0
69 1 16.1777 20.758 0
70 1 18.4427 24.6876 0
71 1 24.0875 14.0729 0
72 1 24.2818 24.1761 0
73 1 28.2683 2.1483 0
74 1 6.18157 5.77968 0
75 1 23.1706 14.8948 0
76 1 18.1782 5.03341 0
77 1 2.23228 25.2603 0
78 1 1.21678 19.1295 0
79 1 19.4816 9.36701 0
80 1 9.48877 2.48234 0
81 1 27.0276 6.11623 0
82 1 1.05137 3.36532 0
83 1 20.1448 19.5842 0
84 1 -0.170752 0.954032 0
85 1 16.3184 14.1705 0
86 1 3.10583 25.1017 0
87 1 5.40003 4.19793 0
88 1 25.0258 20.4374 0
89 1 25.2295 19.2749 0
90 1 15.884 2.40005 0
91 1 18.1329 7.62922 0
92 1 7.19998 20.906 0
93 1 26.4775 6.75823 0
94 1 28.9563 13.0777 0
95 1 27.397 28.4926 0
96 1 26.2948 0.697043 0
97 1 26.9501 5.13932 0
98 1 5.5424 27.4439 0
99 1 13.1081 13.107 0
100 1 15.6816 28.2264 0
101 1 11.0448 7.12668 0
102 1 11.732 29.8295 0
103 1 16.8084 17.1751 0
104 1 17.7061 6.06941 0
105 1 21.2503 19.7481 0
106 1 7.05878 24.3222 0
107 1 12.3566 25.7494 0
108 1 -0.138205 12.6866 0
109 1 21.0501 12.4759 0
110 1 17.4016 22.8745 0
111 1 7.90815 4.40463 0
112 1 4.85654 13.6335 0
113 1 1.29215 11.7384 0
114 1 3.3517 16.6855 0
115 1 23.8544 3.95537 0
116 1 5.67183 9.85515 0
117 1 17.0031 12.223 0
118 1 21.13 22.6155 0
119 1 22.7334 10.9899 0
120 1 26.3182 28.0688 0
121 1 25.8556 2.29834 0
122 1 21.4492 8.18656 0
123 1 21.9021 6.93273 0
124 1 1.00514 -0.0941467 0
125 1 12.4595 29.2796 0
126 1 17.6536 21.2788 0
127 1 11.767 2.37576 0
128 1 27.6963 27.6376 0
129 1 23.1423 21.885 0
130 1 1.65186 23.0593 0
131 1 23.6422 1.44392 0
132 1 24.5933 18.2516 0
133 1 0.128722 13.6661 0
134 1 16.9041 26.7561 0
135 1 2.16882 8.67184 0
136 1 4.6883 6.04623 0
137 1 21.4923 10.4773 0
138 1 20.9225 9.34977 0
139 1 3.17347 12.5921 0
140 1 11.8915 24.8646 0
141 1 6.00219 10.6777 0
142 1 3.44192 13.4489 0
143 1 22.6915 1.10963 0
144 1 27.5807 12.3737 0
145 1 17.0058 10.9934 0
146 1 10.1501 10.6341 0
147 1 22.3386 5.66336 0
148 1 20.4995 23.222 0
149 1 22.0563 0.27867 0
150 1 11.2568 12.4375 0
151 1 17.6901 14.8158 0
152 1 4.2541 15.7971 0
153 1 7.81167 27.1249 0
154 1 14.2494 0.168722 0
155 1 13.7505 25.1876 0
156 1 26.5846 22.3438 0
157 1 18.2694 12.846 0
158 1 12.1547 9.33135 0
159 1 4.19675 22.468 0
160 1 29.6471 27.1601 0
161 1 21.1124 15.6864 0
162 1 11.6879 17.6345 0
163 1 28.2284 19.0829 0
164 1 15.9723 11.7335 0
165 1 15.0638 18.0313 0
166 1 23.0588 8.64298 0
167 1 20.3649 14.9495 0
168 1 26.2075 15.608 0
169 1 -0.120262 16.781 0
170 1 26.5964 14.4413 0
171 1 7.17177 25.3996 0
172 1 14.3114 5.23545 0
173 1 10.711 8.72914 0
174 1 8.24543 11.8539 0
175 1 18.7872 11.5695 0
176 1 22.6078 28.7395 0
177 1 14.8938 24.6574 0
178 1 10.9558 15.1396 0
179 1 25.1373 15.2406 0
180 1 22.8457 12.7763 0
181 1 5.87562 3.19385 0
182 1 0.876112 2.36451 0
183 1 23.4146 5.64082 0
184 1 2.65076 14.701 0
185 1 19.0364 4.74872 0
186 1 11.9513 15.2474 0
187 1 27.6579 7.74536 0
188 1 3.76336 26.1333 0
189 1 26.1384 5.74768 0
190 1 26.9946 26.2508 0
191 1 2.13883 6.92558 0
192 1 7.53722 13.2951 0
193 1 27.6291 17.8271 0
194 1 26.0897 25.5408 0
ITEM: TIMESTEP
2730
ITEM: NUMBER OF ATOMS
194
ITEM: BOX BOUNDS pp pp pp
0.0000000000000000e+00 3.0000000000000000e+01
0.0000000000000000e+00 3.0000000000000000e+01
-5.0000000000000000e-01 5.0000000000000000e-01
ITEM: ATOMS id type x y z
1 1 17.4545 8.49102 0
2 1 18.7379 3.5344 0
3 1 15.3069 13.515 0
4 1 2.07981 2.65112 0
5 1 25.6386 23.3132 0
6 1 15.4448 5.93938 0
7 1 13.6316 23.861 0
8 1 21.0555 26.3584 0
9 1 8.54344 19.963 0
10 1 27.2562 10.8498 0
11 1 24.515 4.99281 0
12 1 25.3442 12.0817 0
13 1 19.7755 24.9388 0
14 1 28.317 24.6376 0
15 1 7.02038 3.40886 0
16 1 17.0668 18.4555 0
17 1 5.35941 23.7756 0
18 1 17.2089 1.83253 0
19 1 26.459 29.4004 0
20 1 10.7827 25.9121 0
21 1 16.2104 25.1598 0
22 1 24.9223 1.29999 0
23 1 27.182 29.9722 0
24 1 18.4273 0.891201 0
25 1 29.3683 5.72677 0
26 1 25.2994 6.84212 0
27 1 7.11097 14.2606 0
28 1 22.1997 26.3106 0
29 1 14.0915 8.53073 0
30 1 25.0636 28.643 0
31 1 17.9537 4.23179 0
32 1 26.8122 2.95545 0
33 1 5.34692 25.1169 0
34 1 5.43803 17.8442 0
35 1 18.5044 26.5655 0
36 1 11.8651 14.025 0
37 1 17.5904 13.7452 0
38 1 29.235 4.36395 0
39 1 28.9645 10.587 0
40 1 16.403 8.04214 0
41 1 7.26741 10.8121 0
42 1 21.6631 14.3735 0
43 1 8.07671 15.2558 0
44 1 4.41944 18.9282 0
45 1 1.34119 1.29833 0
46 1 6.91642 4.83187 0
47 1 16.6093 15.9503 0
48 1 2.21814 27.9254 0
49 1 20.6038 2.938 0
50 1 19.3885 0.537995 0
51 1 24.077 6.33351 0
52 1 3.53662 10.6111 0
53 1 15.5377 20.4808 0
54 1 8.48337 24.1324 0
55 1 24.9533 29.4741 0
56 1 3.70213 17.9528 0
57 1 23.0331 3.0071 0
58 1 29.7869 9.93383 0
59 1 20.7339 0.875589 0
60 1 6.51592 23.8703 0
61 1 0.906601 4.5361 0
62 1 12.4353 7.78776 0
63 1 12.584 21.9052 0
64 1 12.0446 13.0801 0
65 1 18.2966 15.6027 0
66 1 10.5947 13.8845 0
67 1 6.99035 7.77426 0
68 1 7.00333 18.3997 0
69 1 16.4629 20.6803 0
70 1 18.2854 24.5665 0
71 1 24.2645 14.2555 0
72 1 24.3774 24.2171 0
73 1 28.089 2.58153 0
74 1 5.70646 6.16122 0
75 1 23.2836 14.8744 0
76 1 18.0674 5.31245 0
77 1 2.12785 25.6971 0
78 1 1.43624 19.4225 0
79 1 19.4482 8.51227 0
80 1 9.62359 2.23947 0
81 1 27.2927 6.53465 0
82 1 0.990985 3.4516 0
83 1 19.8995 19.8681 0
84 1 29.4874 1.02692 0
85 1 15.8864 14.1907 0
86 1 3.20944 25.6642 0
87 1 5.4984 4.75483 0
88 1 25.1056 20.2626 0
89 1 25.0227 19.022 0
90 1 15.6934 2.59671 0
91 1 18.2814 8.18658 0
92 1 7.66317 20.8776 0
93 1 26.2146 7.20926 0
94 1 28.7531 13.3717 0
95 1 27.4894 28.4434 0
96 1 26.1243 0.629752 0
97 1 26.9895 5.38522 0
98 1 5.30412 27.4882 0
99 1 12.873 12.9331 0
100 1 15.5117 28.7848 0
101 1 10.822 7.67648 0
102 1 11.1239 29.8043 0
103 1 16.6372 17.2399 0
104 1 17.8062 6.1282 0
105 1 21.315 19.6138 0
106 1 7.36049 24.6303 0
107 1 11.9938 25.8226 0
108 1 29.5336 12.7271 0
109 1 21.1374 12.2736 0
110 1 17.0821 22.731 0
111 1 7.74557 4.40564 0
112 1 5.24377 13.6197 0
113 1 1.39932 11.3496 0
114 1 3.28464 16.7343 0
115 1 23.6501 4.41848 0
116 1 5.62786 9.7557 0
117 1 16.6818 12.3222 0
118 1 21.3333 22.6622 0
119 1 22.6507 10.6999 0
120 1 26.5453 28.4253 0
121 1 25.7687 2.58509 0
122 1 21.4521 8.41808 0
123 1 21.5075 6.57455 0
124 1 1.0002 29.3647 0
125 1 12.4029 29.3551 0
126 1 17.7468 21.3038 0
127 1 11.7597 2.22009 0
128 1 27.9416 27.2757 0
129 1 23.6869 22.2333 0
130 1 1.75062 22.8395 0
131 1 23.9724 1.15311 0
132 1 24.4911 17.9596 0
133 1 0.0970527 13.8487 0
134 1 17.1419 27.0806 0
135 1 2.52469 8.49691 0
136 1 4.72803 5.96621 0
137 1 21.3087 10.1828 0
138 1 20.8739 9.03336 0
139 1 3.33434 12.8461 0
140 1 12.0281 24.3436 0
141 1 6.2703 10.905 0
142 1 3.44687 13.9199 0
143 1 22.546 0.861486 0
144 1 27.5495 12.3061 0
145 1 17.1347 11.3043 0
146 1 9.69183 10.6182 0
147 1 22.15 5.73047 0
148 1 20.441 23.6072 0
149 1 21.9061 0.192785 0
150 1 11.1773 12.1123 0
151 1 17.8594 14.5764 0
152 1 4.10959 15.5231 0
153 1 7.97699 27.2507 0
154 1 14.6452 0.127406 0
155 1 13.7077 25.1455 0
156 1 27.1151 22.3381 0
157 1 18.2925 13.1617 0
158 1 11.9426 8.91752 0
159 1 3.92532 22.6266 0
160 1 29.5981 27.4387 0
161 1 21.3288 15.9575 0
162 1 11.2753 17.6231 0
163 1 28.5424 18.9551 0
164 1 15.943 11.8824 0
165 1 15.3328 17.7944 0
166 1 22.7546 8.49644 0
167 1 20.0657 14.8555 0
168 1 26.2455 15.3526 0
169 1 29.5648 16.6761 0
170 1 26.5022 14.3543 0
171 1 7.29032 25.6619 0
172 1 14.4173 5.16894 0
173 1 10.4433 8.92044 0
174 1 8.13042 11.82 0
175 1 18.5555 11.9982 0
176 1 22.7652 28.3802 0
177 1 14.3383 24.5772 0
178 1 11.0951 15.1027 0
179 1 25.1582 14.8098 0
180 1 22.533 12.3838 0
181 1 6.0178 3.58867 0
182 1 1.00714 2.55077 0
183 1 23.076 5.59454 0
184 1 2.53772 14.3332 0
185 1 19.1514 4.82873 0
186 1 12.0824 15.2453 0
187 1 27.7891 7.98977 0
188 1 4.09401 25.9809 0
189 1 26.0695 5.70142 0
190 1 27.0399 26.5692 0
191 1 2.15954 7.08413 0
192 1 7.67281 13.2673 0
193 1 27.8323 17.6358 0
194 1 26.2721 25.4438 0
ITEM: TIMESTEP
2745
ITEM: NUMBER OF ATOMS
194
ITEM: BOX BOUNDS pp pp pp
0.0000000000000000e+00 3.0000000000000000e+01
0.0000000000000000e+00 3.0000000000000000e+01
-5.0000000000000000e-01 5.0000000000000000e-01
ITEM: ATOMS id type x y z
1 1 17.3037 8.53005 0
2 1 18.6687 3.4775 0
3 1 15.382 13.0325 0
4 1 2.31781 2.50598 0
5 1 25.3739 23.1787 0
6 1 15.3989 6.1761 0
7 1 13.144 23.3224 0
8 1 21.3873 26.8268 0
9 1 8.91371 20.3142 0
10 1 27.4489 10.7602 0
11 1 24.5941 5.46585 0
12 1 25.2777 11.9039 0
13 1 19.8698 24.7377 0
14 1 28.0836 24.6344 0
15 1 6.90065 3.27243 0
16 1 16.8926 18.3369 0
17 1 5.50607 23.2429 0
18 1 17.1515 1.93465 0
19 1 26.9134 29.3638 0
20 1 10.9012 26.0431 0
21 1 16.1218 25.1613 0
22 1 25.1384 0.99818 0
23 1 27.4077 30.1924 0
24 1 18.3809 0.786662 0
25 1 29.7902 5.76241 0
26 1 24.8977 7.0476 0
27 1 7.2726 14.2006 0
28 1 22.1366 26.2732 0
29 1 13.8452 8.38547 0
30 1 25.229 28.4309 0
31 1 18.2074 4.32246 0
32 1 26.751 2.25796 0
33 1 5.33354 25.1895 0
34 1 5.61808 17.7943 0
35 1 18.2397 26.6655 0
36 1 11.9857 14.0332 0
37 1 17.5571 13.6025 0
38 1 29.394 4.44674 0
39 1 28.4872 10.2781 0
40 1 16.349 7.96759 0
41 1 7.712 10.9327 0
42 1 21.7335 13.9924 0
43 1 8.21543 15.1027 0
44 1 4.19106 19.226 0
45 1 1.64304 1.25078 0
46 1 6.60715 5.0131 0
47 1 16.7435 15.9053 0
48 1 2.41243 28.0666 0
49 1 20.487 2.66041 0
50 1 19.2711 0.548992 0
51 1 23.6774 6.12405 0
52 1 3.29238 10.5016 0
53 1 15.6828 20.6541 0
54 1 8.69657 24.1493 0
55 1 24.9587 29.6096 0
56 1 3.9366 17.5285 0
57 1 22.8243 2.9549 0
58 1 29.538 10.0178 0
59 1 21.1157 0.971991 0
60 1 6.75307 24.1362 0
61 1 0.955612 4.92594 0
62 1 12.869 7.2508 0
63 1 12.8511 21.6219 0
64 1 11.804 13.0049 0
65 1 17.9056 15.7244 0
66 1 10.1102 13.8999 0
67 1 6.89834 7.84224 0
68 1 6.73733 18.4503 0
69 1 16.8636 20.6352 0
70 1 18.1302 24.4462 0
71 1 24.3352 14.4076 0
72 1 24.4747 24.2566 0
73 1 27.906 3.01531 0
74 1 5.34247 6.59074 0
75 1 23.3979 14.8522 0
76 1 18.0754 5.2681 0
77 1 1.92203 26.1454 0
78 1 1.65571 19.7156 0
79 1 19.4206 7.65616 0
80 1 9.75867 1.9966 0
81 1 27.6529 6.8667 0
82 1 0.943021 3.68838 0
83 1 19.6574 20.1515 0
84 1 29.1466 1.10021 0
85 1 15.5691 14.3393 0
86 1 3.335 26.1896 0
87 1 5.60103 5.31298 0
88 1 25.1849 20.0827 0
89 1 24.8141 18.7702 0
90 1 15.504 2.7928 0
91 1 18.6384 8.64786 0
92 1 8.12624 20.8485 0
93 1 25.9567 7.77256 0
94 1 28.5135 13.6926 0
95 1 27.6796 28.4008 0
96 1 25.956 0.555437 0
97 1 27.2285 5.537 0
98 1 5.06554 27.5319 0
99 1 13.0376 12.7061 0
100 1 15.3445 29.3371 0
101 1 10.6018 8.22999 0
102 1 10.515 29.7804 0
103 1 16.468 17.3042 0
104 1 17.7895 6.53112 0
105 1 21.3765 19.4799 0
106 1 7.66777 24.9126 0
107 1 11.7313 25.8784 0
108 1 29.2448 12.743 0
109 1 21.2275 12.0714 0
110 1 16.7635 22.5857 0
111 1 7.95892 4.22315 0
112 1 5.6302 13.6062 0
113 1 1.5064 10.9607 0
114 1 3.22013 16.7834 0
115 1 23.3669 4.81373 0
116 1 5.58356 9.65441 0
117 1 16.6241 12.5775 0
118 1 21.5411 22.7047 0
119 1 22.5646 10.4099 0
120 1 26.625 28.3862 0
121 1 25.6765 2.86993 0
122 1 21.664 8.40973 0
123 1 21.0794 6.24716 0
124 1 0.995533 28.8237 0
125 1 12.3474 29.4293 0
126 1 17.8359 21.3288 0
127 1 11.7521 2.06439 0
128 1 28.1899 26.9103 0
129 1 24.232 22.5821 0
130 1 1.84964 22.6197 0
131 1 24.18 0.84261 0
132 1 24.391 17.6719 0
133 1 0.0607608 14.0276 0
134 1 17.3822 27.4036 0
135 1 2.8797 8.31918 0
136 1 4.65906 5.83177 0
137 1 21.1268 9.88456 0
138 1 20.5911 8.96142 0
139 1 3.4843 13.0524 0
140 1 12.1667 23.8247 0
141 1 6.42596 11.1404 0
142 1 3.5014 14.4315 0
143 1 22.4983 0.715979 0
144 1 27.5193 12.2369 0
145 1 17.2615 11.6187 0
146 1 9.23348 10.6021 0
147 1 21.8763 5.7855 0
148 1 20.3783 23.9965 0
149 1 21.6573 0.0066894 0
150 1 11.089 11.7814 0
151 1 18.1505 14.6476 0
152 1 3.96265 15.2503 0
153 1 8.14184 27.3754 0
154 1 15.0385 0.0919815 0
155 1 13.4134 25.3296 0
156 1 27.6447 22.3333 0
157 1 18.7626 13.2006 0
158 1 11.728 8.50257 0
159 1 3.65417 22.7856 0
160 1 29.5476 27.7172 0
161 1 21.5446 16.2255 0
162 1 10.8628 17.6115 0
163 1 28.8552 18.8249 0
164 1 15.6548 11.8769 0
165 1 15.6021 17.5577 0
166 1 22.4744 8.34887 0
167 1 19.7685 14.7624 0
168 1 26.2683 15.1435 0
169 1 29.2493 16.5715 0
170 1 26.4152 14.2194 0
171 1 7.40733 25.9477 0
172 1 14.5273 5.10544 0
173 1 10.1785 9.11012 0
174 1 8.01528 11.7909 0
175 1 18.3157 12.4081 0
176 1 22.9225 28.0212 0
177 1 14.1885 24.3938 0
178 1 11.1843 15.0503 0
179 1 25.2906 14.4121 0
180 1 22.2178 11.9901 0
181 1 6.12654 4.00228 0
182 1 1.12818 2.52535 0
183 1 22.8588 5.53475 0
184 1 2.3879 13.9737 0
185 1 19.2651 4.90154 0
186 1 12.2643 15.2474 0
187 1 27.9187 8.23153 0
188 1 4.50674 25.8532 0
189 1 25.7979 5.75626 0
190 1 27.0816 26.886 0
191 1 2.18115 7.24561 0
192 1 7.80823 13.2391 0
193 1 28.0371 17.4465 0
194 1 26.4569 25.3497 0
ITEM: TIMESTEP
2760
ITEM: NUMBER OF ATOMS
194
ITEM: BOX BOUNDS pp pp pp
0.0000000000000000e+00 3.0000000000000000e+01
0.0000000000000000e+00 3.0000000000000000e+01
-5.0000000000000000e-01 5.0000000000000000e-01
ITEM: ATOMS id type x y z
1 1 17.148 8.57213 0
2 1 18.759 3.20321 0
3 1 15.4537 12.6265 0
4 1 2.54962 2.35857 0
5 1 25.4073 23.1875 0
6 1 15.3506 6.41019 0
7 1 12.7782 22.6866 0
8 1 21.6268 27.3532 0
9 1 9.41301 20.5933 0
10 1 27.4576 10.8523 0
11 1 24.6558 5.94187 0
12 1 25.2114 11.726 0
13 1 19.7149 24.8537 0
14 1 27.8491 24.6317 0
15 1 6.8046 3.12778 0
16 1 16.7191 18.2275 0
17 1 5.65443 22.712 0
18 1 17.0946 2.03633 0
19 1 27.2483 29.4536 0
20 1 10.5707 26.2526 0
21 1 16.0332 25.1627 0
22 1 25.1742 0.884616 0
23 1 27.8094 0.64985 0
24 1 18.173 0.72871 0
25 1 0.211534 5.7935 0
26 1 24.4966 7.2496 0
27 1 7.43504 14.1467 0
28 1 22.1665 26.1786 0
29 1 13.5973 8.23837 0
30 1 25.4053 28.18 0
31 1 18.3422 4.44992 0
32 1 26.6932 1.56178 0
33 1 5.43758 25.1514 0
34 1 5.79909 17.7457 0
35 1 17.9769 26.7609 0
36 1 12.104 14.233 0
37 1 17.3505 13.5515 0
38 1 29.5564 4.53316 0
39 1 27.9196 9.92046 0
40 1 16.2936 7.89138 0
41 1 8.08614 10.8734 0
42 1 21.8041 13.6113 0
43 1 8.35066 14.9455 0
44 1 3.96256 19.5218 0
45 1 1.9449 1.21006 0
46 1 6.35252 5.22933 0
47 1 16.7653 15.8727 0
48 1 2.60534 28.2079 0
49 1 20.3702 2.38223 0
50 1 19.3152 0.514567 0
51 1 23.3544 5.95561 0
52 1 3.04735 10.3921 0
53 1 15.8239 20.8266 0
54 1 8.90501 24.1694 0
55 1 24.9608 29.7919 0
56 1 4.18948 17.1191 0
57 1 22.6155 2.90302 0
58 1 29.5635 9.97151 0
59 1 21.5003 1.06784 0
60 1 6.99152 24.405 0
61 1 1.00244 5.31113 0
62 1 13.303 6.71698 0
63 1 13.1183 21.34 0
64 1 11.5496 12.7453 0
65 1 17.6274 15.8405 0
66 1 9.62818 13.9167 0
67 1 6.8059 7.91012 0
68 1 6.46886 18.4998 0
69 1 17.2698 20.5917 0
70 1 17.9759 24.3263 0
71 1 24.297 14.5027 0
72 1 24.5743 24.292 0
73 1 27.7201 3.44779 0
74 1 5.07202 7.07462 0
75 1 23.4534 14.856 0
76 1 18.0561 5.3976 0
77 1 1.71984 26.5943 0
78 1 1.87522 20.0086 0
79 1 19.3971 6.80029 0
80 1 9.89421 1.75361 0
81 1 28.0117 7.19909 0
82 1 0.89427 3.94152 0
83 1 19.4158 20.4349 0
84 1 28.805 1.17326 0
85 1 15.2588 14.4964 0
86 1 3.44569 26.7131 0
87 1 5.67135 5.89282 0
88 1 25.2632 19.8987 0
89 1 24.6051 18.5183 0
90 1 15.3151 2.98861 0
91 1 18.9992 9.10665 0
92 1 8.46027 20.8916 0
93 1 25.6983 8.33353 0
94 1 28.2758 14.0115 0
95 1 27.9043 28.3562 0
96 1 26.0898 0.305513 0
97 1 27.4668 5.69268 0
98 1 4.82646 27.5745 0
99 1 13.2129 12.4771 0
100 1 15.3933 29.2816 0
101 1 10.4534 8.66685 0
102 1 9.90687 29.7565 0
103 1 16.6375 17.2725 0
104 1 17.7701 6.94412 0
105 1 21.4371 19.3463 0
106 1 7.97785 25.1766 0
107 1 11.9192 25.8546 0
108 1 28.9558 12.7625 0
109 1 21.1572 11.9006 0
110 1 16.4457 22.4388 0
111 1 8.16806 4.03878 0
112 1 6.01739 13.5931 0
113 1 1.6141 10.5715 0
114 1 3.13948 16.8177 0
115 1 23.2889 4.9509 0
116 1 5.54006 9.55427 0
117 1 16.5871 12.8467 0
118 1 21.7479 22.7483 0
119 1 22.4755 10.1203 0
120 1 26.6055 27.9846 0
121 1 25.5835 3.15275 0
122 1 21.4165 8.41777 0
123 1 20.5302 5.99684 0
124 1 0.991586 28.2817 0
125 1 12.291 29.5037 0
126 1 17.923 21.3545 0
127 1 11.7441 1.90867 0
128 1 28.4412 26.5493 0
129 1 24.4769 22.792 0
130 1 1.94952 22.3999 0
131 1 24.2674 0.509635 0
132 1 24.2925 17.3883 0
133 1 0.0213724 14.2038 0
134 1 17.6207 27.7308 0
135 1 3.23198 8.13753 0
136 1 4.49361 5.6393 0
137 1 20.959 9.59992 0
138 1 20.2667 8.89932 0
139 1 3.63203 13.2649 0
140 1 12.1857 23.405 0
141 1 6.58507 11.3746 0
142 1 3.27371 14.4947 0
143 1 22.4631 0.585279 0
144 1 27.4902 12.1658 0
145 1 17.3876 11.9379 0
146 1 8.79681 10.5778 0
147 1 21.624 5.78416 0
148 1 20.5646 24.0676 0
149 1 21.3936 29.8071 0
150 1 11.0026 11.4538 0
151 1 18.445 14.7221 0
152 1 4.10923 15.4207 0
153 1 8.30587 27.4986 0
154 1 15.2157 0.664398 0
155 1 13.0987 25.5316 0
156 1 28.1741 22.3287 0
157 1 19.4513 13.2492 0
158 1 11.5107 8.08584 0
159 1 3.38266 22.9446 0
160 1 29.496 27.9955 0
161 1 21.7604 16.4929 0
162 1 10.4503 17.6 0
163 1 29.1672 18.6931 0
164 1 15.3502 11.7726 0
165 1 15.533 17.4036 0
166 1 22.6818 8.16216 0
167 1 19.4693 14.6685 0
168 1 26.2661 15.0539 0
169 1 28.9318 16.4688 0
170 1 26.3991 13.9552 0
171 1 7.52247 26.2464 0
172 1 14.6398 5.04492 0
173 1 9.84535 9.41773 0
174 1 7.94498 11.9527 0
175 1 18.0217 12.7065 0
176 1 23.0791 27.6615 0
177 1 14.0557 24.1903 0
178 1 11.2675 14.9911 0
179 1 25.5446 14.0549 0
180 1 22.0635 11.5636 0
181 1 6.19675 4.37322 0
182 1 1.25491 2.48434 0
183 1 22.4671 5.67229 0
184 1 2.22871 13.6146 0
185 1 19.3688 4.9719 0
186 1 12.4529 15.2462 0
187 1 28.0473 8.46985 0
188 1 4.81487 25.8384 0
189 1 25.5388 5.81233 0
190 1 27.1206 27.2027 0
191 1 2.20553 7.41118 0
192 1 7.94584 13.205 0
193 1 28.245 17.2572 0
194 1 26.6433 25.2565 0
ITEM: TIMESTEP
2775
ITEM: NUMBER OF ATOMS
194
ITEM: BOX BOUNDS pp pp pp
0.0000000000000000e+00 3.0000000000000000e+01
0.0000000000000000e+00 3.0000000000000000e+01
-5.0000000000000000e-01 5.0000000000000000e-01
ITEM: ATOMS id type x y z
1 1 16.9972 8.61619 0
2 1 18.849 2.93229 0
3 1 15.549 12.5844 0
4 1 2.77413 2.20743 0
5 1 25.9912 23.4544 0
6 1 15.3016 6.6432 0
7 1 12.6306 21.845 0
8 1 21.8654 27.8819 0
9 1 10.0128 20.8277 0
10 1 27.24 11.1904 0
11 1 24.5194 6.45815 0
12 1 25.1453 11.5483 0
13 1 19.4588 25.0896 0
14 1 27.6134 24.6298 0
15 1 6.70811 2.98762 0
16 1 16.5483 18.1891 0
17 1 5.80285 22.1815 0
18 1 17.0383 2.13738 0
19 1 27.5826 29.541 0
20 1 10.2338 26.4635 0
21 1 15.9447 25.164 0
22 1 25.101 0.894918 0
23 1 27.8528 0.918917 0
24 1 17.9558 0.673887 0
25 1 0.347045 5.9798 0
26 1 24.0965 7.44741 0
27 1 7.59421 14.1039 0
28 1 22.2004 26.0829 0
29 1 13.3485 8.08926 0
30 1 25.5691 27.9332 0
31 1 18.5158 4.4263 0
32 1 26.6358 0.863416 0
33 1 5.74609 24.9096 0
34 1 5.94739 17.6485 0
35 1 17.7218 26.8395 0
36 1 12.2161 14.4095 0
37 1 17.1744 13.6162 0
38 1 29.7242 4.62203 0
39 1 27.5736 9.32451 0
40 1 16.2349 7.81092 0
41 1 7.75873 11.0369 0
42 1 21.8745 13.2294 0
43 1 8.48353 14.783 0
44 1 3.7338 19.8176 0
45 1 2.24755 1.17644 0
46 1 6.23716 5.65038 0
47 1 16.3722 15.8693 0
48 1 2.79719 28.3474 0
49 1 20.2533 2.10346 0
50 1 19.3683 0.478185 0
51 1 23.2013 5.90701 0
52 1 2.79921 10.2828 0
53 1 15.9688 21 0
54 1 9.11007 24.1926 0
55 1 25.0918 29.8752 0
56 1 4.45277 16.7152 0
57 1 22.4066 2.85095 0
58 1 29.5872 9.92526 0
59 1 21.86 1.18067 0
60 1 7.23347 24.6777 0
61 1 1.33212 5.53281 0
62 1 13.738 6.18498 0
63 1 13.3845 21.0614 0
64 1 11.2958 12.4843 0
65 1 17.7654 15.9283 0
66 1 9.14419 13.9346 0
67 1 6.7127 7.97787 0
68 1 6.23205 18.5976 0
69 1 17.6433 20.5081 0
70 1 17.822 24.2067 0
71 1 24.4183 14.5297 0
72 1 24.6762 24.3221 0
73 1 27.5338 3.88013 0
74 1 4.80292 7.5526 0
75 1 23.3523 14.9263 0
76 1 18.0058 5.67769 0
77 1 1.51949 27.0437 0
78 1 2.09503 20.3017 0
79 1 19.2856 5.98287 0
80 1 10.0304 1.51028 0
81 1 28.3699 7.53487 0
82 1 0.843644 4.19767 0
83 1 19.1731 20.7188 0
84 1 28.8172 1.43387 0
85 1 14.949 14.6527 0
86 1 3.55792 27.2376 0
87 1 5.65733 6.54611 0
88 1 25.3405 19.7125 0
89 1 24.3959 18.2647 0
90 1 15.1266 3.18434 0
91 1 19.354 9.57094 0
92 1 8.69379 20.9794 0
93 1 25.4387 8.89321 0
94 1 28.0396 14.3271 0
95 1 28.1226 28.3113 0
96 1 26.3859 -0.0422791 0
97 1 27.7051 5.84992 0
98 1 4.58546 27.615 0
99 1 13.3866 12.2487 0
100 1 15.4724 29.1291 0
101 1 10.3905 8.98206 0
102 1 9.2989 29.7329 0
103 1 16.9466 17.1337 0
104 1 17.751 7.35649 0
105 1 21.4976 19.2128 0
106 1 8.28549 25.4366 0
107 1 12.0369 25.8445 0
108 1 28.6637 12.7848 0
109 1 20.9057 11.778 0
110 1 16.1284 22.2898 0
111 1 8.37519 3.85372 0
112 1 6.40738 13.5805 0
113 1 1.72468 10.182 0
114 1 3.05005 16.8451 0
115 1 23.284 4.94658 0
116 1 5.4969 9.45411 0
117 1 16.4739 13.046 0
118 1 21.9542 22.7925 0
119 1 22.3837 9.83214 0
120 1 26.3907 27.8127 0
121 1 25.4915 3.43477 0
122 1 21.1156 8.43461 0
123 1 20.0527 5.71403 0
124 1 0.986838 27.7393 0
125 1 12.2344 29.5782 0
126 1 18.0401 21.4208 0
127 1 11.7355 1.75282 0
128 1 28.6896 26.1902 0
129 1 24.1693 22.7491 0
130 1 2.0515 22.181 0
131 1 24.1783 0.247467 0
132 1 24.195 17.1086 0
133 1 -0.0194337 14.3792 0
134 1 17.8514 28.0749 0
135 1 3.58053 7.95279 0
136 1 4.3306 5.44988 0
137 1 20.8316 9.35425 0
138 1 19.9148 8.78954 0
139 1 3.77558 13.483 0
140 1 11.9883 23.1885 0
141 1 6.74956 11.609 0
142 1 2.91077 14.3585 0
143 1 22.4491 0.432708 0
144 1 27.4633 12.096 0
145 1 17.4555 12.1766 0
146 1 8.97516 10.3431 0
147 1 21.0392 5.82559 0
148 1 20.8519 24.018 0
149 1 21.1336 29.6135 0
150 1 10.9175 11.1294 0
151 1 18.4672 14.8428 0
152 1 4.3886 15.785 0
153 1 8.46838 27.6191 0
154 1 15.3626 1.33401 0
155 1 12.8614 25.7169 0
156 1 28.7036 22.3242 0
157 1 20.1402 13.3042 0
158 1 11.2905 7.67109 0
159 1 3.10924 23.1028 0
160 1 29.4441 28.2738 0
161 1 21.9764 16.7603 0
162 1 10.0378 17.5885 0
163 1 29.4785 18.56 0
164 1 15.0264 11.3065 0
165 1 15.3227 17.2808 0
166 1 22.9376 7.97021 0
167 1 19.4385 14.5262 0
168 1 26.2588 14.9771 0
169 1 28.6691 16.2693 0
170 1 26.6869 13.638 0
171 1 7.64001 26.5448 0
172 1 14.7534 4.98643 0
173 1 9.5059 9.76269 0
174 1 7.87991 12.1871 0
175 1 17.8274 13.038 0
176 1 23.2327 27.3007 0
177 1 13.9214 23.9879 0
178 1 11.3521 14.9339 0
179 1 25.4976 13.7391 0
180 1 22.0912 11.087 0
181 1 6.21078 4.46564 0
182 1 1.3874 2.4428 0
183 1 22.1865 5.78462 0
184 1 2.07548 13.2575 0
185 1 19.4654 5.04129 0
186 1 12.6452 15.2635 0
187 1 28.1817 8.69578 0
188 1 4.9181 26.0289 0
189 1 25.4711 5.83224 0
190 1 27.376 27.2922 0
191 1 2.23404 7.57969 0
192 1 8.08917 13.1606 0
193 1 28.3986 17.1656 0
194 1 26.8312 25.1632 0
ITEM: TIMESTEP
2790
ITEM: NUMBER OF ATOMS
194
ITEM: BOX BOUNDS pp pp pp
0.0000000000000000e+00 3.0000000000000000e+01
0.0000000000000000e+00 3.0000000000000000e+01
-5.0000000000000000e-01 5.0000000000000000e-01
ITEM: ATOMS id type x y z
1 1 16.8494 8.65899 0
2 1 18.9395 2.66282 0
3 1 15.5804 12.5048 0
4 1 2.99479 2.0566 0
5 1 26.5735 23.7232 0
6 1 15.2525 6.87691 0
7 1 12.48 21.006 0
8 1 22.1062 28.4095 0
9 1 10.6098 21.0623 0
10 1 26.9584 11.3406 0
11 1 24.358 6.95929 0
12 1 25.0797 11.3708 0
13 1 19.2032 25.3244 0
14 1 27.5565 24.4883 0
15 1 6.61149 2.84981 0
16 1 16.3746 18.1628 0
17 1 5.95126 21.651 0
18 1 16.982 2.23749 0
19 1 27.9134 29.63 0
20 1 9.89712 26.6741 0
21 1 15.8564 25.1651 0
22 1 25.0416 0.936614 0
23 1 27.5097 0.981685 0
24 1 17.7415 0.619538 0
25 1 0.328437 6.24461 0
26 1 23.8637 7.60609 0
27 1 7.74341 14.0696 0
28 1 22.2351 25.9896 0
29 1 13.0996 7.93944 0
30 1 25.2815 27.7474 0
31 1 18.6524 4.38301 0
32 1 26.6238 0.406724 0
33 1 6.05678 24.6682 0
34 1 6.06776 17.4897 0
35 1 17.4675 26.9201 0
36 1 12.322 14.4838 0
37 1 16.9712 14.0237 0
38 1 29.8908 4.71432 0
39 1 27.0881 8.86099 0
40 1 16.1749 7.72656 0
41 1 7.42124 11.1914 0
42 1 21.9431 12.8468 0
43 1 8.55903 14.7531 0
44 1 3.50366 20.1138 0
45 1 2.5491 1.14506 0
46 1 6.13779 6.07207 0
47 1 15.9752 15.8696 0
48 1 2.98935 28.4846 0
49 1 20.1353 1.82456 0
50 1 19.4187 0.442816 0
51 1 23.0935 5.95804 0
52 1 2.60075 10.1882 0
53 1 16.1156 21.1755 0
54 1 9.31312 24.2181 0
55 1 25.3675 29.8462 0
56 1 4.75759 16.8459 0
57 1 22.1972 2.79781 0
58 1 29.6101 9.87848 0
59 1 22.1605 1.35948 0
60 1 7.47767 24.9542 0
61 1 1.81334 5.66969 0
62 1 14.1757 5.65256 0
63 1 13.6534 20.7813 0
64 1 11.0414 12.2201 0
65 1 17.9081 16.0152 0
66 1 8.72469 13.831 0
67 1 6.61788 8.04491 0
68 1 6.02215 18.7564 0
69 1 17.9926 20.3761 0
70 1 17.6685 24.0876 0
71 1 24.5569 14.549 0
72 1 24.7795 24.3498 0
73 1 27.3474 4.31291 0
74 1 4.64914 8.03562 0
75 1 23.2381 15.0019 0
76 1 17.8898 5.9779 0
77 1 1.78492 27.0153 0
78 1 2.31619 20.5952 0
79 1 18.6121 5.49271 0
80 1 10.1676 1.26666 0
81 1 28.7283 7.86901 0
82 1 0.796826 4.45617 0
83 1 18.9281 21.0019 0
84 1 29.211 1.8969 0
85 1 14.64 14.8089 0
86 1 3.55034 27.7487 0
87 1 5.62562 7.22062 0
88 1 25.4173 19.5254 0
89 1 24.1866 18.008 0
90 1 14.9382 3.37996 0
91 1 19.6762 10.075 0
92 1 8.93016 21.0669 0
93 1 25.1789 9.45259 0
94 1 27.8023 14.6409 0
95 1 28.3391 28.2657 0
96 1 26.6367 29.3657 0
97 1 27.9435 6.00743 0
98 1 4.46342 27.6684 0
99 1 13.5608 12.02 0
100 1 15.5516 28.977 0
101 1 10.5003 9.19848 0
102 1 8.69106 29.7096 0
103 1 17.2552 16.9754 0
104 1 17.7291 7.77043 0
105 1 21.5581 19.0792 0
106 1 8.58833 25.6962 0
107 1 11.7121 25.91 0
108 1 28.3674 12.807 0
109 1 20.656 11.6558 0
110 1 15.8108 22.1383 0
111 1 8.58154 3.66839 0
112 1 6.80286 13.5687 0
113 1 1.78537 9.77764 0
114 1 2.96483 16.8716 0
115 1 23.2822 4.85582 0
116 1 5.4539 9.35308 0
117 1 16.249 13.1365 0
118 1 22.1597 22.8379 0
119 1 22.2891 9.54691 0
120 1 26.5127 27.6903 0
121 1 25.3997 3.71692 0
122 1 20.8493 8.308 0
123 1 20.0387 5.30907 0
124 1 0.515981 27.6759 0
125 1 12.1778 29.653 0
126 1 18.182 21.5368 0
127 1 11.7257 1.5966 0
128 1 28.9367 25.8318 0
129 1 23.8627 22.708 0
130 1 2.15612 21.9636 0
131 1 23.9397 0.0653675 0
132 1 24.098 16.8328 0
133 1 29.939 14.5544 0
134 1 18.0814 28.4167 0
135 1 3.81402 7.75842 0
136 1 4.16978 5.26153 0
137 1 20.6767 9.2645 0
138 1 19.5913 8.62845 0
139 1 3.91441 13.7048 0
140 1 11.7914 22.9711 0
141 1 6.88309 11.8784 0
142 1 2.54943 14.2161 0
143 1 22.4928 0.21288 0
144 1 27.5033 12.2164 0
145 1 17.4491 12.2802 0
146 1 8.56839 10.7756 0
147 1 20.8278 6.03728 0
148 1 21.1392 23.9682 0
149 1 20.8759 29.4221 0
150 1 10.8327 10.8079 0
151 1 18.2155 15.0204 0
152 1 4.62274 15.6154 0
153 1 8.62855 27.736 0
154 1 15.5103 2.00431 0
155 1 13.0662 25.8265 0
156 1 29.233 22.3197 0
157 1 20.8289 13.3612 0
158 1 11.0692 7.25806 0
159 1 2.83323 23.2586 0
160 1 29.3895 28.5513 0
161 1 22.1926 17.0276 0
162 1 9.62522 17.577 0
163 1 29.7891 18.4262 0
164 1 14.7015 10.8347 0
165 1 15.117 17.1585 0
166 1 23.0073 7.84353 0
167 1 19.6799 14.3257 0
168 1 26.2509 14.8937 0
169 1 28.485 15.8918 0
170 1 26.9992 13.3213 0
171 1 7.76257 26.8417 0
172 1 14.8661 4.9297 0
173 1 9.62552 9.51787 0
174 1 7.78671 12.3429 0
175 1 17.9115 13.3165 0
176 1 23.383 26.9392 0
177 1 13.7866 23.7857 0
178 1 11.4058 14.8978 0
179 1 25.4259 13.4308 0
180 1 22.1179 10.6074 0
181 1 6.22288 4.53819 0
182 1 1.52458 2.39953 0
183 1 21.8966 5.88309 0
184 1 1.92578 12.9037 0
185 1 19.355 4.7371 0
186 1 12.8747 15.3613 0
187 1 28.4555 8.79178 0
188 1 5.02066 26.2207 0
189 1 25.4425 5.83927 0
190 1 27.7512 27.2764 0
191 1 2.26598 7.74913 0
192 1 8.2544 13.1689 0
193 1 28.4742 17.2523 0
194 1 26.8398 25.2089 0
ITEM: TIMESTEP
2805
ITEM: NUMBER OF ATOMS
194
ITEM: BOX BOUNDS pp pp pp
0.0000000000000000e+00 3.0000000000000000e+01
0.0000000000000000e+00 3.0000000000000000e+01
-5.0000000000000000e-01 5.0000000000000000e-01
ITEM: ATOMS id type x y z
1 1 16.7033 8.6963 0
2 1 19.0319 2.39256 0
3 1 15.4803 12.3139 0
4 1 3.23353 1.94907 0
5 1 27.0019 23.8941 0
6 1 15.205 7.11197 0
7 1 12.3302 20.1682 0
8 1 22.3468 28.9388 0
9 1 11.2062 21.297 0
10 1 26.63 11.3855 0
11 1 24.5612 6.96945 0
12 1 25.0148 11.1926 0
13 1 18.9472 25.5589 0
14 1 27.7765 24.3433 0
15 1 6.51487 2.71318 0
16 1 16.2012 18.1329 0
17 1 6.09967 21.1204 0
18 1 16.9237 2.33676 0
19 1 28.2388 29.719 0
20 1 9.55774 26.8845 0
21 1 15.7683 25.1661 0
22 1 24.9813 0.977512 0
23 1 27.1773 1.04882 0
24 1 17.5284 0.565729 0
25 1 0.311355 6.50635 0
26 1 23.8324 8.06511 0
27 1 7.8516 14.0846 0
28 1 22.2718 25.8979 0
29 1 12.8506 7.78941 0
30 1 24.921 27.57 0
31 1 18.2073 4.02665 0
32 1 26.619 0.0944128 0
33 1 6.3699 24.428 0
34 1 6.1847 17.3314 0
35 1 17.2137 27.0023 0
36 1 12.45 14.508 0
37 1 16.7618 14.45 0
38 1 29.9145 4.84521 0
39 1 26.5847 8.40951 0
40 1 16.1156 7.64161 0
41 1 7.24279 11.1575 0
42 1 22.0093 12.4633 0
43 1 8.55808 14.9814 0
44 1 3.27782 20.4071 0
45 1 2.82906 1.0722 0
46 1 6.03664 6.49547 0
47 1 15.578 15.872 0
48 1 2.97091 28.9296 0
49 1 20.0143 1.54535 0
50 1 19.4694 0.409206 0
51 1 22.984 6.01929 0
52 1 2.55229 10.1592 0
53 1 16.2794 21.3166 0
54 1 9.51508 24.2452 0
55 1 25.6473 29.8152 0
56 1 5.08408 17.2077 0
57 1 21.9879 2.74149 0
58 1 29.6317 9.83 0
59 1 22.4576 1.54507 0
60 1 7.7233 25.233 0
61 1 2.29128 5.80594 0
62 1 14.397 5.32782 0
63 1 13.9209 20.5007 0
64 1 10.7867 11.9526 0
65 1 18.0554 16.121 0
66 1 8.78508 13.9426 0
67 1 6.52299 8.11173 0
68 1 5.81269 18.9132 0
69 1 18.3389 20.2408 0
70 1 17.5151 23.9688 0
71 1 24.6952 14.5672 0
72 1 24.8832 24.3766 0
73 1 27.1608 4.7464 0
74 1 4.8847 8.57951 0
75 1 23.1276 15.0768 0
76 1 17.4858 6.41128 0
77 1 2.17847 26.867 0
78 1 2.53356 20.8909 0
79 1 18.1877 4.94662 0
80 1 10.3064 1.02322 0
81 1 29.1227 8.09614 0
82 1 0.894663 4.68 0
83 1 18.8994 21.1245 0
84 1 29.6041 2.35944 0
85 1 14.3311 14.9662 0
86 1 3.48967 27.9421 0
87 1 5.59162 7.89409 0
88 1 25.4936 19.3379 0
89 1 23.9771 17.7472 0
90 1 14.7512 3.57557 0
91 1 20.0017 10.5769 0
92 1 9.16803 21.1545 0
93 1 24.9194 10.0127 0
94 1 27.5614 14.9529 0
95 1 28.5433 28.2174 0
96 1 26.8694 28.6197 0
97 1 28.182 6.16447 0
98 1 4.60512 27.7286 0
99 1 13.7362 11.7904 0
100 1 15.6307 28.825 0
101 1 10.9891 9.22318 0
102 1 8.08339 29.6861 0
103 1 17.5503 16.8336 0
104 1 17.7025 8.18682 0
105 1 21.6187 18.9454 0
106 1 8.88742 25.9564 0
107 1 11.3752 25.9773 0
108 1 28.195 12.9194 0
109 1 20.4074 11.5335 0
110 1 15.4769 22.0211 0
111 1 8.78758 3.48298 0
112 1 7.16157 13.526 0
113 1 1.69592 9.30712 0
114 1 2.88093 16.8978 0
115 1 23.2804 4.75772 0
116 1 5.41305 9.2525 0
117 1 16.1523 13.3302 0
118 1 22.3651 22.8849 0
119 1 22.1961 9.23156 0
120 1 26.7127 27.5602 0
121 1 25.3082 3.99951 0
122 1 20.6098 8.04467 0
123 1 20.126 5.10106 0
124 1 -0.0849707 27.7355 0
125 1 12.1211 29.7281 0
126 1 18.1097 21.8168 0
127 1 11.7143 1.43956 0
128 1 29.1827 25.4736 0
129 1 23.555 22.6677 0
130 1 2.26165 21.7493 0
131 1 23.7028 29.8856 0
132 1 24.0007 16.5608 0
133 1 29.8968 14.7297 0
134 1 18.3107 28.757 0
135 1 3.65735 7.49951 0
136 1 4.00939 5.07337 0
137 1 20.4854 9.31461 0
138 1 19.277 8.46809 0
139 1 4.05034 13.9283 0
140 1 11.5948 22.7532 0
141 1 6.74637 12.3122 0
142 1 2.18957 14.0697 0
143 1 22.5417 -0.0126386 0
144 1 27.5028 12.2638 0
145 1 17.4362 12.3789 0
146 1 8.16365 11.2139 0
147 1 20.8639 6.41104 0
148 1 21.428 23.9168 0
149 1 20.6196 29.2309 0
150 1 10.7475 10.4873 0
151 1 17.9689 15.1607 0
152 1 4.83663 15.2161 0
153 1 8.7865 27.8482 0
154 1 15.6593 2.67734 0
155 1 13.2827 25.9342 0
156 1 29.7625 22.3152 0
157 1 21.5174 13.419 0
158 1 10.848 6.84551 0
159 1 2.55578 23.4119 0
160 1 29.3464 28.832 0
161 1 22.4096 17.2951 0
162 1 9.21269 17.5655 0
163 1 30.0991 18.2916 0
164 1 14.3761 10.3647 0
165 1 14.9141 17.0351 0
166 1 22.5106 7.90409 0
167 1 19.9211 14.1242 0
168 1 26.2438 14.8076 0
169 1 28.3023 15.514 0
170 1 27.2724 13.0964 0
171 1 7.89098 27.1387 0
172 1 15.1962 4.66428 0
173 1 9.37058 9.46311 0
174 1 7.62829 12.2676 0
175 1 18.0126 13.5914 0
176 1 23.531 26.5767 0
177 1 13.6515 23.5837 0
178 1 11.4214 14.8814 0
179 1 25.3549 13.126 0
180 1 22.1403 10.1568 0
181 1 6.23497 4.61227 0
182 1 1.66507 2.35464 0
183 1 21.6592 5.96358 0
184 1 1.77771 12.5527 0
185 1 19.4676 4.3271 0
186 1 13.1212 15.4893 0
187 1 28.7125 8.9841 0
188 1 5.12271 26.4142 0
189 1 25.4117 5.84796 0
190 1 28.1232 27.2628 0
191 1 2.30024 7.91874 0
192 1 8.26517 12.9383 0
193 1 28.55 17.3391 0
194 1 26.7252 25.357 0
ITEM: TIMESTEP
2820
ITEM: NUMBER OF ATOMS
194
ITEM: BOX BOUNDS pp pp pp
0.0000000000000000e+00 3.0000000000000000e+01
0.0000000000000000e+00 3.0000000000000000e+01
-5.0000000000000000e-01 5.0000000000000000e-01
ITEM: ATOMS id type x y z
1 1 16.5549 8.72852 0
2 1 19.1273 2.11978 0
3 1 15.376 12.1192 0
4 1 3.50545 1.91691 0
5 1 26.9827 23.7846 0
6 1 15.1341 7.33633 0
7 1 12.1812 19.3315 0
8 1 22.5254 29.0666 0
9 1 11.8037 21.5333 0
10 1 26.3034 11.4342 0
11 1 24.8181 6.90516 0
12 1 25.0115 11.2194 0
13 1 18.6909 25.7933 0
14 1 28.4427 24.4839 0
15 1 6.41826 2.57714 0
16 1 16.0274 18.1014 0
17 1 6.24803 20.5897 0
18 1 16.8617 2.43708 0
19 1 28.5638 29.8045 0
20 1 9.22637 27.1135 0
21 1 15.6805 25.167 0
22 1 24.9227 1.01341 0
23 1 26.849 1.11799 0
24 1 17.3158 0.512171 0
25 1 0.294058 6.76671 0
26 1 23.7491 8.59447 0
27 1 8.0025 14.2587 0
28 1 22.3114 25.8076 0
29 1 12.6014 7.63937 0
30 1 24.561 27.3921 0
31 1 17.7255 3.50141 0
32 1 26.7391 29.7983 0
33 1 6.68465 24.1889 0
34 1 6.3139 17.1725 0
35 1 16.9602 27.0848 0
36 1 12.5875 14.5317 0
37 1 16.5552 14.8728 0
38 1 29.8385 4.99844 0
39 1 26.0816 7.95807 0
40 1 16.0841 7.57095 0
41 1 6.94222 11.0989 0
42 1 22.0778 12.0756 0
43 1 8.55387 15.2265 0
44 1 3.39195 20.4609 0
45 1 3.0735 0.924758 0
46 1 5.93488 6.92254 0
47 1 15.1776 15.8766 0
48 1 2.85087 29.5318 0
49 1 19.8893 1.26809 0
50 1 19.5209 0.375733 0
51 1 22.8711 6.07689 0
52 1 2.5111 10.134 0
53 1 16.4568 21.4391 0
54 1 9.71649 24.2732 0
55 1 25.7981 29.7647 0
56 1 5.39789 17.5719 0
57 1 21.7803 2.68066 0
58 1 29.6579 9.7838 0
59 1 22.7531 1.73252 0
60 1 7.97115 25.5135 0
61 1 2.76902 5.94192 0
62 1 14.4267 5.17971 0
63 1 14.1865 20.22 0
64 1 10.5318 11.6822 0
65 1 18.3759 16.0823 0
66 1 9.0269 14.0876 0
67 1 6.52122 8.18847 0
68 1 5.60338 19.0677 0
69 1 18.6759 20.0942 0
70 1 17.3617 23.8502 0
71 1 24.8348 14.5848 0
72 1 24.9873 24.4034 0
73 1 26.9742 5.18071 0
74 1 4.65758 8.80234 0
75 1 23.0191 15.1522 0
76 1 17.0787 6.84742 0
77 1 2.57286 26.7198 0
78 1 2.56986 21.0025 0
79 1 17.7665 4.54865 0
80 1 10.4482 0.780489 0
81 1 29.5551 8.23123 0
82 1 1.09277 4.88377 0
83 1 18.9902 21.1724 0
84 1 29.9974 2.82201 0
85 1 14.0343 15.1174 0
86 1 3.52718 27.978 0
87 1 5.57484 8.47013 0
88 1 25.5699 19.1502 0
89 1 23.7659 17.4816 0
90 1 14.5681 3.77114 0
91 1 20.2277 10.6688 0
92 1 9.40631 21.242 0
93 1 24.6002 10.3684 0
94 1 27.1649 15.1826 0
95 1 28.69 28.1986 0
96 1 27.1598 28.123 0
97 1 28.4205 6.32086 0
98 1 4.7507 27.7852 0
99 1 13.9132 11.5592 0
100 1 15.7099 28.6728 0
101 1 11.476 9.25215 0
102 1 7.4759 29.6622 0
103 1 17.6787 16.9217 0
104 1 17.6762 8.60266 0
105 1 21.6797 18.8108 0
106 1 9.1748 26.1908 0
107 1 11.0387 26.0447 0
108 1 28.3229 13.1612 0
109 1 20.261 11.8172 0
110 1 15.1298 21.9224 0
111 1 8.99352 3.29753 0
112 1 7.35162 13.3343 0
113 1 1.60002 8.83052 0
114 1 2.7973 16.924 0
115 1 23.2776 4.66431 0
116 1 5.72584 9.556 0
117 1 16.0639 13.5307 0
118 1 22.5228 22.9505 0
119 1 22.1109 8.79139 0
120 1 26.8585 27.1835 0
121 1 25.2168 4.28309 0
122 1 20.3679 7.78281 0
123 1 20.2991 4.98008 0
124 1 29.3493 27.7778 0
125 1 12.064 29.8044 0
126 1 17.9264 22.1828 0
127 1 11.7002 1.28064 0
128 1 29.4275 25.1149 0
129 1 23.2923 22.6118 0
130 1 2.20855 21.9601 0
131 1 23.476 29.703 0
132 1 23.9018 16.2926 0
133 1 29.8536 14.9054 0
134 1 18.5401 29.0978 0
135 1 3.49666 7.24136 0
136 1 3.84855 4.88568 0
137 1 20.2917 9.36551 0
138 1 18.967 8.30841 0
139 1 4.18698 14.154 0
140 1 11.3979 22.5329 0
141 1 6.3327 12.7391 0
142 1 1.82984 13.9213 0
143 1 22.6424 0.169852 0
144 1 27.434 11.7965 0
145 1 17.4232 12.4827 0
146 1 8.03692 11.4545 0
147 1 20.7505 6.85739 0
148 1 21.7196 23.8627 0
149 1 20.3635 29.0406 0
150 1 10.6624 10.1646 0
151 1 17.7119 15.2117 0
152 1 5.04907 14.8153 0
153 1 8.94149 27.9661 0
154 1 15.8093 3.35246 0
155 1 13.4984 26.0418 0
156 1 0.291992 22.3108 0
157 1 22.202 13.4807 0
158 1 10.627 6.43317 0
159 1 2.27801 23.5637 0
160 1 29.3296 29.1286 0
161 1 22.6291 17.5631 0
162 1 8.80016 17.554 0
163 1 0.40843 18.1567 0
164 1 14.0499 9.89668 0
165 1 14.7142 16.9084 0
166 1 22.0117 7.95469 0
167 1 20.1627 13.9223 0
168 1 26.2386 14.7208 0
169 1 28.2721 15.2176 0
170 1 27.3089 13.2545 0
171 1 8.02297 27.434 0
172 1 15.7179 4.21948 0
173 1 9.11733 9.40921 0
174 1 7.38053 12.1806 0
175 1 18.1092 13.866 0
176 1 23.677 26.2135 0
177 1 13.5164 23.3817 0
178 1 11.4305 14.8683 0
179 1 25.2843 12.8226 0
180 1 22.1538 9.84064 0
181 1 6.24692 4.68652 0
182 1 1.80752 2.30862 0
183 1 21.5743 5.97082 0
184 1 1.63025 12.2035 0
185 1 19.5325 3.85106 0
186 1 13.3548 15.6221 0
187 1 28.9268 9.26546 0
188 1 5.22335 26.6111 0
189 1 25.3788 5.85867 0
190 1 28.4832 27.2258 0
191 1 2.3365 8.08938 0
192 1 8.4343 12.8881 0
193 1 28.6263 17.4253 0
194 1 26.6127 25.5009 0
ITEM: TIMESTEP
2835
ITEM: NUMBER OF ATOMS
194
ITEM: BOX BOUNDS pp pp pp
0.0000000000000000e+00 3.0000000000000000e+01
0.0000000000000000e+00 3.0000000000000000e+01
-5.0000000000000000e-01 5.0000000000000000e-01
ITEM: ATOMS id type x y z
1 1 16.4055 8.75511 0
2 1 19.2201 1.85086 0
3 1 15.271 11.9258 0
4 1 3.78261 1.89894 0
5 1 26.9633 23.6763 0
6 1 15.0041 7.54461 0
7 1 12.0323 18.4952 0
8 1 22.6439 28.8269 0
9 1 12.4029 21.7671 0
10 1 25.9897 11.4839 0
11 1 25.0736 6.83814 0
12 1 25.1356 11.654 0
13 1 18.4344 26.0277 0
14 1 28.9579 24.5589 0
15 1 6.32164 2.4414 0
16 1 15.8531 18.069 0
17 1 6.39555 20.0574 0
18 1 16.7151 2.45747 0
19 1 28.7773 29.9929 0
20 1 8.96409 27.2454 0
21 1 15.593 25.168 0
22 1 24.8657 1.04684 0
23 1 26.5192 1.18205 0
24 1 17.1037 0.458576 0
25 1 0.275691 7.02752 0
26 1 23.6639 9.12403 0
27 1 8.13989 14.4528 0
28 1 22.3541 25.7179 0
29 1 12.3518 7.48963 0
30 1 24.1996 27.2119 0
31 1 17.3253 3.01126 0
32 1 27.0505 29.526 0
33 1 6.99996 23.9504 0
34 1 6.4788 17.0017 0
35 1 16.7065 27.1674 0
36 1 12.7252 14.561 0
37 1 16.3509 15.294 0
38 1 29.765 5.15241 0
39 1 25.58 7.50874 0
40 1 16.0037 7.58297 0
41 1 6.60884 11.0342 0
42 1 22.1458 11.6905 0
43 1 8.55159 15.469 0
44 1 3.71503 20.3638 0
45 1 3.31662 0.77058 0
46 1 5.83422 7.35475 0
47 1 14.7765 15.8708 0
48 1 2.7262 30.1256 0
49 1 19.8184 1.12237 0
50 1 19.5203 0.204708 0
51 1 22.754 6.13173 0
52 1 2.46856 10.1069 0
53 1 16.6327 21.5636 0
54 1 9.91776 24.3019 0
55 1 25.7584 29.696 0
56 1 5.6761 17.9509 0
57 1 21.5754 2.61684 0
58 1 29.8931 9.87318 0
59 1 23.0459 1.9203 0
60 1 8.22253 25.7963 0
61 1 3.24845 6.07559 0
62 1 14.4586 5.02713 0
63 1 14.4522 19.9397 0
64 1 10.277 11.4095 0
65 1 18.744 16.0062 0
66 1 9.29833 14.2268 0
67 1 6.59011 8.25243 0
68 1 5.39481 19.2207 0
69 1 19.0118 19.9463 0
70 1 17.2085 23.7306 0
71 1 24.9776 14.6025 0
72 1 25.0918 24.4304 0
73 1 26.7866 5.6157 0
74 1 4.20955 9.00369 0
75 1 22.913 15.2295 0
76 1 16.7827 7.2235 0
77 1 2.96846 26.5741 0
78 1 2.48852 21.0347 0
79 1 17.3455 4.19727 0
80 1 10.5947 0.539082 0
81 1 29.9879 8.36715 0
82 1 1.28851 5.08812 0
83 1 19.0799 21.2238 0
84 1 0.391424 3.28478 0
85 1 14.0297 15.0394 0
86 1 3.56803 28.0131 0
87 1 5.61431 8.9745 0
88 1 25.6461 18.9624 0
89 1 23.5708 17.2034 0
90 1 14.3912 3.9691 0
91 1 20.3865 10.4469 0
92 1 9.64482 21.3296 0
93 1 24.1444 10.3165 0
94 1 26.7381 15.4169 0
95 1 28.2957 28.5586 0
96 1 27.5346 27.9515 0
97 1 28.6595 6.47673 0
98 1 4.89296 27.8381 0
99 1 14.0923 11.3275 0
100 1 15.7894 28.5204 0
101 1 11.9597 9.28453 0
102 1 6.86857 29.638 0
103 1 17.7651 17.0641 0
104 1 17.6524 9.01617 0
105 1 21.742 18.6746 0
106 1 9.44863 26.2904 0
107 1 10.7009 26.1121 0
108 1 28.5112 13.3949 0
109 1 20.1833 12.4113 0
110 1 14.7853 21.8222 0
111 1 9.19945 3.11207 0
112 1 7.53365 13.1437 0
113 1 1.45283 8.38494 0
114 1 2.71368 16.9502 0
115 1 23.2742 4.57387 0
116 1 6.13136 9.96041 0
117 1 15.9771 13.7319 0
118 1 22.3718 23.1156 0
119 1 22.0917 8.67317 0
120 1 26.9246 26.4812 0
121 1 25.1257 4.569 0
122 1 19.9685 7.76038 0
123 1 20.4718 4.85813 0
124 1 29.476 27.5795 0
125 1 12.0056 29.8836 0
126 1 17.7436 22.5469 0
127 1 11.6827 1.11758 0
128 1 29.8228 24.8223 0
129 1 23.365 22.4143 0
130 1 2.06335 22.4032 0
131 1 23.3126 29.4995 0
132 1 23.8 16.0268 0
133 1 29.8089 15.0811 0
134 1 18.7713 29.4405 0
135 1 3.33329 6.98595 0
136 1 3.6862 4.69986 0
137 1 20.098 9.41737 0
138 1 18.6563 8.14958 0
139 1 4.29913 14.3707 0
140 1 11.1994 22.3148 0
141 1 5.9197 13.1666 0
142 1 1.46992 13.772 0
143 1 22.7403 0.743608 0
144 1 27.3622 11.3253 0
145 1 17.4099 12.5893 0
146 1 8.20922 11.3394 0
147 1 20.7865 7.07067 0
148 1 21.9849 23.8513 0
149 1 20.1057 28.8524 0
150 1 10.5795 9.84001 0
151 1 17.4459 15.2407 0
152 1 5.28602 14.4235 0
153 1 9.04969 28.3185 0
154 1 15.9984 3.10346 0
155 1 13.7142 26.1493 0
156 1 0.822499 22.3063 0
157 1 22.8864 13.5402 0
158 1 10.4061 6.0209 0
159 1 2.00007 23.7136 0
160 1 29.4257 29.3188 0
161 1 22.8322 17.8399 0
162 1 8.38754 17.5424 0
163 1 0.717275 18.0216 0
164 1 13.7236 9.42995 0
165 1 14.5118 16.7888 0
166 1 21.4455 7.62553 0
167 1 20.4042 13.7197 0
168 1 26.1912 14.6013 0
169 1 28.3128 14.9466 0
170 1 27.2826 13.425 0
171 1 8.14351 27.7233 0
172 1 16.1971 4.69862 0
173 1 8.86517 9.35594 0
174 1 6.85917 12.4346 0
175 1 18.2031 14.1426 0
176 1 23.8215 25.8513 0
177 1 13.3811 23.1793 0
178 1 11.4441 14.8541 0
179 1 25.2147 12.5199 0
180 1 22.1683 9.58191 0
181 1 6.25876 4.76069 0
182 1 1.95086 2.26205 0
183 1 21.5 5.97391 0
184 1 1.48301 11.8553 0
185 1 19.5972 3.37678 0
186 1 13.2964 15.983 0
187 1 28.9329 9.4087 0
188 1 5.32201 26.8126 0
189 1 25.3458 5.86794 0
190 1 28.684 27.0556 0
191 1 2.42739 8.22888 0
192 1 8.59979 12.8447 0
193 1 28.7031 17.5116 0
194 1 26.5004 25.6443 0
ITEM: TIMESTEP
2850
ITEM: NUMBER OF ATOMS
194
ITEM: BOX BOUNDS pp pp pp
0.0000000000000000e+00 3.0000000000000000e+01
0.0000000000000000e+00 3.0000000000000000e+01
-5.0000000000000000e-01 5.0000000000000000e-01
ITEM: ATOMS id type x y z
1 1 16.2589 8.77562 0
2 1 19.2099 1.70357 0
3 1 15.1627 11.731 0
4 1 4.05733 1.87673 0
5 1 26.9436 23.5686 0
6 1 14.7124 7.74257 0
7 1 11.8835 17.6589 0
8 1 22.6891 28.5085 0
9 1 13.0009 22.0027 0
10 1 25.9817 11.4696 0
11 1 24.9068 6.48033 0
12 1 24.894 11.5514 0
13 1 18.1776 26.2623 0
14 1 29.0887 24.4825 0
15 1 6.22498 2.30579 0
16 1 15.6784 18.0361 0
17 1 6.53937 19.5221 0
18 1 16.2771 1.78528 0
19 1 28.8215 0.344241 0
20 1 8.79722 27.2531 0
21 1 15.5054 25.1691 0
22 1 24.8104 1.07899 0
23 1 26.1876 1.24349 0
24 1 16.892 0.405091 0
25 1 0.25643 7.29212 0
26 1 23.5473 9.55095 0
27 1 8.27714 14.6385 0
28 1 22.3995 25.6278 0
29 1 12.1021 7.34059 0
30 1 23.837 27.0287 0
31 1 17.3902 2.96789 0
32 1 27.2991 29.2909 0
33 1 7.3154 23.712 0
34 1 6.64439 16.8323 0
35 1 16.4521 27.2512 0
36 1 12.8631 14.5949 0
37 1 16.1427 15.7145 0
38 1 29.6935 5.30722 0
39 1 25.4154 7.5791 0
40 1 15.6501 7.83557 0
41 1 6.28548 11.1276 0
42 1 22.2135 11.3055 0
43 1 8.55226 15.7125 0
44 1 4.03627 20.2677 0
45 1 3.71653 0.769493 0
46 1 5.73422 7.79048 0
47 1 14.4054 15.7784 0
48 1 2.44631 0.570978 0
49 1 19.9004 0.996887 0
50 1 19.6983 0.0578839 0
51 1 22.6318 6.18488 0
52 1 2.42586 10.0789 0
53 1 16.8098 21.6903 0
54 1 10.119 24.3313 0
55 1 25.7188 29.6294 0
56 1 5.95318 18.3337 0
57 1 21.3717 2.55202 0
58 1 0.209381 10.0079 0
59 1 23.3396 2.11119 0
60 1 8.47916 26.0827 0
61 1 3.74493 5.97692 0
62 1 14.5066 4.94764 0
63 1 14.7179 19.6598 0
64 1 10.0219 11.1351 0
65 1 19.1075 15.9305 0
66 1 9.56459 14.3671 0
67 1 6.65797 8.31631 0
68 1 5.19053 19.372 0
69 1 19.3479 19.8032 0
70 1 17.0514 23.6163 0
71 1 25.1215 14.621 0
72 1 25.1969 24.4583 0
73 1 26.5955 6.05129 0
74 1 3.76316 9.20501 0
75 1 22.8074 15.3069 0
76 1 16.9239 7.37708 0
77 1 3.36509 26.4304 0
78 1 2.40825 21.0687 0
79 1 16.9186 3.84919 0
80 1 10.7477 0.299024 0
81 1 0.420166 8.50423 0
82 1 1.48171 5.29249 0
83 1 19.1688 21.271 0
84 1 0.78597 3.74801 0
85 1 14.065 14.904 0
86 1 3.61278 28.0457 0
87 1 5.65157 9.47518 0
88 1 25.7222 18.7747 0
89 1 23.4228 16.8886 0
90 1 14.201 4.09356 0
91 1 20.5525 10.2396 0
92 1 9.88417 21.4178 0
93 1 23.717 10.3685 0
94 1 26.362 15.7047 0
95 1 27.9844 28.9432 0
96 1 27.8743 27.7353 0
97 1 28.9001 6.6321 0
98 1 5.02749 27.8986 0
99 1 14.2751 11.0973 0
100 1 15.87 28.3665 0
101 1 12.4424 9.31754 0
102 1 6.26132 29.6136 0
103 1 17.8533 17.2035 0
104 1 17.6272 9.42552 0
105 1 21.8077 18.536 0
106 1 9.64508 26.38 0
107 1 10.441 26.1613 0
108 1 28.6962 13.631 0
109 1 20.078 12.9622 0
110 1 14.4409 21.7217 0
111 1 9.40539 2.92662 0
112 1 7.74691 13.0121 0
113 1 1.22608 7.96764 0
114 1 2.62989 16.9766 0
115 1 23.271 4.48507 0
116 1 6.52951 10.2111 0
117 1 15.8912 13.9343 0
118 1 22.3965 22.9346 0
119 1 22.0757 8.44962 0
120 1 27.2189 26.0685 0
121 1 25.0337 4.85578 0
122 1 19.4319 7.9212 0
123 1 20.6455 4.73704 0
124 1 29.8269 27.5024 0
125 1 11.9442 29.967 0
126 1 17.5631 22.9034 0
127 1 11.6617 0.948833 0
128 1 0.602224 24.6809 0
129 1 23.4565 22.2074 0
130 1 1.96066 22.8699 0
131 1 23.2247 29.3757 0
132 1 23.6973 15.7645 0
133 1 29.7618 15.2562 0
134 1 18.7777 29.6157 0
135 1 3.15218 6.962 0
136 1 3.52278 4.51715 0
137 1 19.8978 9.45333 0
138 1 18.3459 7.9926 0
139 1 4.35896 14.5767 0
140 1 11.0022 22.0959 0
141 1 5.56629 13.3445 0
142 1 1.10979 13.6222 0
143 1 22.8344 1.31406 0
144 1 27.2863 10.8551 0
145 1 17.3964 12.6973 0
146 1 8.37932 11.2269 0
147 1 20.46 6.64058 0
148 1 22.0556 24.196 0
149 1 19.8442 28.6683 0
150 1 10.4979 9.51564 0
151 1 17.1871 15.2677 0
152 1 5.52165 14.2889 0
153 1 9.1531 28.7601 0
154 1 16.021 2.89031 0
155 1 13.9302 26.2567 0
156 1 1.31201 22.2793 0
157 1 23.5707 13.6003 0
158 1 10.1852 5.60869 0
159 1 1.72161 23.8593 0
160 1 29.6864 29.3396 0
161 1 22.9858 18.1503 0
162 1 7.97441 17.5302 0
163 1 1.02598 17.8863 0
164 1 13.396 8.96355 0
165 1 14.2817 16.7655 0
166 1 21.362 7.69004 0
167 1 20.6734 13.5592 0
168 1 26.0947 14.4255 0
169 1 28.3537 14.6732 0
170 1 27.2581 13.5971 0
171 1 8.16751 28.0713 0
172 1 16.6729 5.38428 0
173 1 8.61375 9.30324 0
174 1 6.30065 12.632 0
175 1 18.2939 14.4226 0
176 1 23.9645 25.4917 0
177 1 13.2454 22.9753 0
178 1 11.4623 14.8389 0
179 1 25.2085 12.8176 0
180 1 22.1991 9.49244 0
181 1 6.27059 4.83473 0
182 1 2.09466 2.21519 0
183 1 21.4265 5.98107 0
184 1 1.33593 11.5073 0
185 1 19.6621 2.90123 0
186 1 13.1928 16.3877 0
187 1 28.8603 9.50189 0
188 1 5.4234 27.0071 0
189 1 25.4018 5.64696 0
190 1 28.6779 26.7531 0
191 1 2.5981 8.33795 0
192 1 8.76786 12.8014 0
193 1 28.7803 17.5979 0
194 1 26.1609 25.4991 0
ITEM: TIMESTEP
2865
ITEM: NUMBER OF ATOMS
194
ITEM: BOX BOUNDS pp pp pp
0.0000000000000000e+00 3.0000000000000000e+01
0.0000000000000000e+00 3.0000000000000000e+01
-5.0000000000000000e-01 5.0000000000000000e-01
ITEM: ATOMS id type x y z
1 1 16.1224 8.80368 0
2 1 19.122 1.64268 0
3 1 15.0699 11.5505 0
4 1 4.33079 1.85207 0
5 1 26.9236 23.4615 0
6 1 14.2107 7.92509 0
7 1 11.7358 16.8219 0
8 1 22.7005 28.1434 0
9 1 13.5422 22.0637 0
10 1 26.0654 11.435 0
11 1 24.5394 6.3234 0
12 1 24.5422 11.2998 0
13 1 17.9204 26.4971 0
14 1 29.2195 24.4061 0
15 1 6.12808 2.17018 0
16 1 15.503 18.0032 0
17 1 6.81241 19.136 0
18 1 15.9282 0.957656 0
19 1 28.8647 0.693293 0
20 1 8.67407 27.2369 0
21 1 15.4176 25.1706 0
22 1 24.7583 1.11108 0
23 1 25.852 1.303 0
24 1 16.6802 0.352679 0
25 1 0.189411 7.54951 0
26 1 23.2994 9.45459 0
27 1 8.41825 14.8196 0
28 1 22.4466 25.5353 0
29 1 11.8527 7.1922 0
30 1 23.4736 26.8436 0
31 1 17.471 2.89833 0
32 1 26.8014 29.4537 0
33 1 7.63085 23.4736 0
34 1 6.8117 16.6659 0
35 1 16.1984 27.3318 0
36 1 13.002 14.6317 0
37 1 15.9338 16.1336 0
38 1 29.6223 5.46382 0
39 1 25.3178 7.76212 0
40 1 15.4973 8.09689 0
41 1 5.95177 11.5296 0
42 1 22.2823 10.9187 0
43 1 8.5539 15.9573 0
44 1 4.35698 20.172 0
45 1 4.14374 0.789599 0
46 1 5.62542 8.2231 0
47 1 14.0809 15.7226 0
48 1 2.13982 0.999579 0
49 1 20.0798 0.931113 0
50 1 20.1281 -0.0521298 0
51 1 22.5043 6.2369 0
52 1 2.38423 10.0493 0
53 1 16.9888 21.8203 0
54 1 10.3204 24.3617 0
55 1 25.6816 29.5645 0
56 1 6.09552 18.5686 0
57 1 21.1673 2.48682 0
58 1 0.523932 10.1398 0
59 1 23.7035 2.39562 0
60 1 8.65044 26.3285 0
61 1 4.25744 5.78819 0
62 1 14.6122 5.05873 0
63 1 14.9841 19.3795 0
64 1 9.76516 10.8597 0
65 1 19.4692 15.8543 0
66 1 9.82528 14.5086 0
67 1 6.73297 8.38723 0
68 1 4.99256 19.52 0
69 1 19.6838 19.663 0
70 1 16.7076 23.7369 0
71 1 25.1961 14.659 0
72 1 25.2984 24.4823 0
73 1 26.3984 6.48574 0
74 1 3.31343 9.40542 0
75 1 22.6545 15.3649 0
76 1 17.0679 7.53211 0
77 1 3.76239 26.2884 0
78 1 2.32741 21.1045 0
79 1 16.4775 3.53577 0
80 1 10.9012 0.0569524 0
81 1 0.805088 8.68122 0
82 1 1.67374 5.49578 0
83 1 19.2578 21.3156 0
84 1 1.18105 4.21268 0
85 1 14.0584 14.6624 0
86 1 3.66105 28.0763 0
87 1 5.69242 9.97538 0
88 1 25.7984 18.5869 0
89 1 23.2755 16.5707 0
90 1 13.9537 4.02735 0
91 1 20.7354 10.0543 0
92 1 10.1037 21.4948 0
93 1 23.4158 10.9448 0
94 1 25.9852 15.9897 0
95 1 28.4286 28.9432 0
96 1 28.2081 27.5036 0
97 1 29.1441 6.78679 0
98 1 5.12731 28.0291 0
99 1 14.4424 10.8527 0
100 1 15.9502 28.2157 0
101 1 12.8161 9.44141 0
102 1 5.65393 29.5889 0
103 1 17.9418 17.3417 0
104 1 17.6007 9.83186 0
105 1 21.8785 18.3956 0
106 1 9.44475 26.6198 0
107 1 10.6633 26.0864 0
108 1 28.9238 13.7881 0
109 1 19.7483 13.2532 0
110 1 14.161 21.581 0
111 1 9.61132 2.74116 0
112 1 7.93778 12.8852 0
113 1 1.09343 7.51967 0
114 1 2.54533 17.0033 0
115 1 23.2684 4.39724 0
116 1 6.93633 10.1533 0
117 1 15.8061 14.1379 0
118 1 22.4343 22.7319 0
119 1 22.1367 8.23705 0
120 1 27.6294 25.7831 0
121 1 24.7163 4.79756 0
122 1 18.9208 8.08488 0
123 1 20.8206 4.61856 0
124 1 30.1757 27.4254 0
125 1 11.9036 29.9773 0
126 1 17.5673 23.0217 0
127 1 11.6192 0.855114 0
128 1 1.2293 24.7719 0
129 1 23.5437 22.0036 0
130 1 2.11495 23.3636 0
131 1 23.1711 29.2987 0
132 1 23.6427 15.5246 0
133 1 29.7124 15.4298 0
134 1 18.5156 29.6055 0
135 1 2.95337 7.02813 0
136 1 3.35945 4.33719 0
137 1 19.6815 9.46506 0
138 1 18.0095 7.83405 0
139 1 4.42179 14.7814 0
140 1 10.8256 21.888 0
141 1 5.04014 13.0787 0
142 1 0.749388 13.4723 0
143 1 22.8587 1.7903 0
144 1 27.2077 10.386 0
145 1 17.3826 12.806 0
146 1 8.55075 11.1157 0
147 1 20.0141 6.09349 0
148 1 22.1185 24.5622 0
149 1 19.5798 28.4899 0
150 1 10.416 9.19231 0
151 1 16.9306 15.2931 0
152 1 5.63006 14.8163 0
153 1 9.25287 29.197 0
154 1 15.9526 2.82515 0
155 1 14.1467 26.3638 0
156 1 1.61366 22.1106 0
157 1 24.2568 13.6612 0
158 1 9.9644 5.19649 0
159 1 1.5276 23.8854 0
160 1 29.9452 29.3598 0
161 1 23.1338 18.4613 0
162 1 7.55879 17.5163 0
163 1 1.33527 17.7505 0
164 1 13.1776 8.40509 0
165 1 14.0466 16.8138 0
166 1 21.3184 7.80547 0
167 1 21.1669 13.6588 0
168 1 26.0694 14.229 0
169 1 28.349 14.4785 0
170 1 27.2355 13.7728 0
171 1 8.15148 28.4617 0
172 1 17.1493 6.06806 0
173 1 8.36254 9.25122 0
174 1 6.04115 12.6093 0
175 1 18.3822 14.7052 0
176 1 24.1071 25.1332 0
177 1 13.1013 22.9858 0
178 1 11.4837 14.8231 0
179 1 25.2217 13.2847 0
180 1 22.2388 9.45721 0
181 1 6.28241 4.90874 0
182 1 2.23902 2.16668 0
183 1 21.3529 5.99035 0
184 1 1.18877 11.158 0
185 1 19.7278 2.42319 0
186 1 13.086 16.7887 0
187 1 28.791 9.59596 0
188 1 5.55551 27.1323 0
189 1 25.8216 5.45835 0
190 1 28.6683 26.4544 0
191 1 2.76989 8.44671 0
192 1 8.95717 12.7535 0
193 1 28.8576 17.6842 0
194 1 25.7098 25.2328 0
ITEM: TIMESTEP
2880
ITEM: NUMBER OF ATOMS
194
ITEM: BOX BOUNDS pp pp pp
0.0000000000000000e+00 3.0000000000000000e+01
0.0000000000000000e+00 3.0000000000000000e+01
-5.0000000000000000e-01 5.0000000000000000e-01
ITEM: ATOMS id type x y z
1 1 16.0651 8.91407 0
2 1 18.9801 1.52482 0
3 1 15.0516 11.4541 0
4 1 4.60597 1.83669 0
5 1 26.903 23.355 0
6 1 13.8244 8.10563 0
7 1 11.5915 15.9841 0
8 1 22.7141 27.7788 0
9 1 13.5201 22.3642 0
10 1 26.148 11.3994 0
11 1 24.1748 6.16478 0
12 1 24.1908 11.0475 0
13 1 17.6627 26.7322 0
14 1 29.3506 24.3302 0
15 1 6.0302 2.03435 0
16 1 15.3265 17.9721 0
17 1 7.47536 19.1561 0
18 1 15.4745 0.182842 0
19 1 28.9085 1.04042 0
20 1 8.52904 27.3914 0
21 1 15.3295 25.1724 0
22 1 24.6778 1.13715 0
23 1 25.544 1.36763 0
24 1 16.5736 0.24839 0
25 1 29.9453 7.79416 0
26 1 23.1107 9.34999 0
27 1 8.56266 15.0016 0
28 1 22.5636 25.6028 0
29 1 11.604 7.04458 0
30 1 23.1083 26.6588 0
31 1 17.5509 2.82535 0
32 1 26.4052 29.6273 0
33 1 7.94631 23.2353 0
34 1 6.97757 16.4935 0
35 1 15.9862 27.2176 0
36 1 13.1185 14.6733 0
37 1 15.7273 16.5502 0
38 1 29.5507 5.62387 0
39 1 25.2203 7.94223 0
40 1 15.2675 8.27387 0
41 1 5.5655 11.7729 0
42 1 22.3503 10.5262 0
43 1 8.55473 16.2002 0
44 1 4.44468 20.3488 0
45 1 4.56958 0.800071 0
46 1 5.51499 8.65571 0
47 1 13.7609 15.6965 0
48 1 1.82447 1.40877 0
49 1 20.2623 0.990661 0
50 1 20.5497 29.7141 0
51 1 22.3729 6.28831 0
52 1 2.25778 10.0804 0
53 1 17.1698 21.955 0
54 1 10.5218 24.3931 0
55 1 25.5307 29.4966 0
56 1 5.84542 18.3983 0
57 1 20.9598 2.42066 0
58 1 0.769819 10.1326 0
59 1 24.1085 2.72019 0
60 1 8.40954 26.2899 0
61 1 4.76872 5.59923 0
62 1 14.72 5.17593 0
63 1 15.251 19.0965 0
64 1 9.51399 10.5806 0
65 1 19.8295 15.7769 0
66 1 10.0835 14.651 0
67 1 6.81014 8.46108 0
68 1 5.03105 19.3931 0
69 1 20.0194 19.5239 0
70 1 16.3052 23.9225 0
71 1 25.1907 14.7255 0
72 1 25.2249 24.1418 0
73 1 26.1975 6.91738 0
74 1 2.94803 9.55243 0
75 1 22.4529 15.4135 0
76 1 16.8528 7.60055 0
77 1 4.16017 26.1476 0
78 1 2.25078 21.1314 0
79 1 16.2122 3.48397 0
80 1 10.996 29.8127 0
81 1 1.17636 8.87102 0
82 1 1.86458 5.69629 0
83 1 19.3468 21.359 0
84 1 1.57744 4.68082 0
85 1 14.0675 14.3817 0
86 1 3.7126 28.1059 0
87 1 5.73787 10.4767 0
88 1 25.8746 18.3991 0
89 1 23.1254 16.2522 0
90 1 13.7044 3.95488 0
91 1 20.9192 9.86833 0
92 1 9.92385 21.3562 0
93 1 23.118 11.5286 0
94 1 25.6073 16.2715 0
95 1 28.8867 28.9356 0
96 1 28.5437 27.2724 0
97 1 29.3922 6.93974 0
98 1 5.19785 28.2177 0
99 1 14.5351 10.5238 0
100 1 15.9893 28.2594 0
101 1 13.1156 9.64448 0
102 1 5.04554 29.5631 0
103 1 18.0303 17.4795 0
104 1 17.574 10.2369 0
105 1 21.9545 18.2554 0
106 1 9.66765 26.9799 0
107 1 10.8948 26.0081 0
108 1 29.2951 13.7405 0
109 1 19.4108 13.538 0
110 1 14.4784 21.0163 0
111 1 9.81726 2.55577 0
112 1 8.10052 12.7617 0
113 1 1.14992 7.07264 0
114 1 2.45849 17.0315 0
115 1 23.2684 4.31037 0
116 1 7.34013 10.094 0
117 1 15.7216 14.3432 0
118 1 22.4758 22.5274 0
119 1 22.3661 8.13731 0
120 1 28.0365 25.4942 0
121 1 24.3278 4.65308 0
122 1 18.5422 8.29829 0
123 1 20.9963 4.50354 0
124 1 0.523089 27.3483 0
125 1 11.9662 29.8292 0
126 1 17.6278 23.0707 0
127 1 11.5317 0.921714 0
128 1 1.49704 25.4655 0
129 1 23.627 21.8023 0
130 1 2.75779 23.3744 0
131 1 23.1166 29.2189 0
132 1 23.6405 15.2944 0
133 1 29.6615 15.6019 0
134 1 18.2567 29.5948 0
135 1 2.75415 7.0964 0
136 1 3.19609 4.15847 0
137 1 19.4656 9.47519 0
138 1 17.8979 7.71305 0
139 1 4.48995 14.9855 0
140 1 11.0484 21.8959 0
141 1 4.27316 12.9791 0
142 1 0.387794 13.3228 0
143 1 22.8423 2.22584 0
144 1 27.1283 9.91789 0
145 1 17.3688 12.9151 0
146 1 8.71602 11.0086 0
147 1 19.5729 5.54536 0
148 1 22.1141 24.7686 0
149 1 19.3145 28.3152 0
150 1 10.3336 8.86973 0
151 1 16.6713 15.3194 0
152 1 5.73338 15.3426 0
153 1 9.34926 29.6311 0
154 1 15.7093 2.50054 0
155 1 14.3641 26.4703 0
156 1 1.90729 21.9482 0
157 1 24.5325 13.852 0
158 1 9.74356 4.78421 0
159 1 1.20781 23.7943 0
160 1 0.201216 29.38 0
161 1 23.2768 18.7712 0
162 1 7.14438 17.509 0
163 1 1.64678 17.6133 0
164 1 12.9188 7.76922 0
165 1 13.8933 16.8683 0
166 1 21.1077 7.81259 0
167 1 21.6679 13.765 0
168 1 26.2028 14.0568 0
169 1 28.1979 14.4872 0
170 1 27.2136 13.9526 0
171 1 8.14092 28.8509 0
172 1 17.6258 6.75557 0
173 1 8.10984 9.20063 0
174 1 6.07611 12.5782 0
175 1 18.47 14.9895 0
176 1 24.2535 24.7739 0
177 1 12.9233 23.1807 0
178 1 11.5061 14.8075 0
179 1 25.5714 13.5703 0
180 1 22.2151 9.42382 0
181 1 6.29397 4.98285 0
182 1 2.3934 2.13771 0
183 1 21.2785 5.99926 0
184 1 1.1119 10.9436 0
185 1 19.8534 1.99869 0
186 1 12.8964 17.1886 0
187 1 28.722 9.69055 0
188 1 5.71354 27.2009 0
189 1 26.3103 5.36242 0
190 1 28.6616 26.1616 0
191 1 2.93923 8.54541 0
192 1 9.17424 12.7011 0
193 1 28.935 17.7704 0
194 1 25.4294 25.3326 0
ITEM: TIMESTEP
2895
ITEM: NUMBER OF ATOMS
194
ITEM: BOX BOUNDS pp pp pp
0.0000000000000000e+00 3.0000000000000000e+01
0.0000000000000000e+00 3.0000000000000000e+01
-5.0000000000000000e-01 5.0000000000000000e-01
ITEM: ATOMS id type x y z
1 1 16.0497 9.05975 0
2 1 18.7802 1.36069 0
3 1 15.0513 11.3834 0
4 1 4.88471 1.84388 0
5 1 26.8818 23.2489 0
6 1 13.6433 8.30545 0
7 1 11.446 15.4842 0
8 1 22.7274 27.4318 0
9 1 13.511 22.6414 0
10 1 26.2305 11.363 0
11 1 23.8101 6.00383 0
12 1 23.8372 10.7962 0
13 1 17.4039 26.9678 0
14 1 29.4813 24.2554 0
15 1 5.92876 1.89764 0
16 1 15.1473 17.9265 0
17 1 8.13751 19.1749 0
18 1 14.961 29.4271 0
19 1 28.9524 1.38697 0
20 1 8.38445 27.5751 0
21 1 15.2417 25.1741 0
22 1 24.4057 1.11219 0
23 1 25.4272 1.48301 0
24 1 16.5277 0.124096 0
25 1 29.7156 8.07589 0
26 1 23.1225 9.2314 0
27 1 8.70887 15.1878 0
28 1 22.7464 25.7231 0
29 1 11.3577 6.89839 0
30 1 22.7838 26.631 0
31 1 17.6279 2.75317 0
32 1 26.3418 29.8318 0
33 1 8.26177 22.9969 0
34 1 7.13874 16.3002 0
35 1 15.786 27.0082 0
36 1 13.1875 14.7272 0
37 1 15.5205 16.9675 0
38 1 29.4792 5.78885 0
39 1 25.1251 8.11945 0
40 1 14.9947 8.41316 0
41 1 5.07477 11.7666 0
42 1 22.4303 10.1629 0
43 1 8.55362 16.4388 0
44 1 4.43329 20.6499 0
45 1 4.9962 0.784917 0
46 1 5.40906 9.08855 0
47 1 13.441 15.6722 0
48 1 1.44408 1.72541 0
49 1 20.4893 0.965186 0
50 1 20.9698 29.4823 0
51 1 22.2412 6.34015 0
52 1 1.83778 10.3269 0
53 1 17.3526 22.0936 0
54 1 10.7237 24.4259 0
55 1 25.0463 29.3994 0
56 1 5.59571 18.2289 0
57 1 20.7516 2.35388 0
58 1 0.811525 9.69362 0
59 1 24.5108 3.04337 0
60 1 8.16087 26.2235 0
61 1 5.28151 5.4094 0
62 1 14.8267 5.29132 0
63 1 15.5207 18.8251 0
64 1 9.42841 10.198 0
65 1 20.188 15.6984 0
66 1 10.3434 14.7945 0
67 1 6.88571 8.53816 0
68 1 5.17059 19.1398 0
69 1 20.3549 19.3853 0
70 1 15.9035 24.1082 0
71 1 25.1921 14.7987 0
72 1 25.1171 23.7115 0
73 1 25.9937 7.34913 0
74 1 2.86761 9.53804 0
75 1 22.2273 15.4385 0
76 1 16.3633 7.60947 0
77 1 4.55845 26.0077 0
78 1 2.25994 20.9294 0
79 1 16.0056 3.51999 0
80 1 11.0108 29.5713 0
81 1 1.54999 9.06104 0
82 1 2.06963 5.97224 0
83 1 19.4357 21.4021 0
84 1 1.96015 5.07646 0
85 1 14.1232 14.0922 0
86 1 3.76748 28.1356 0
87 1 5.78502 10.98 0
88 1 25.9507 18.2111 0
89 1 22.997 15.961 0
90 1 13.4565 3.88405 0
91 1 21.1036 9.68148 0
92 1 9.6971 21.193 0
93 1 22.8218 12.109 0
94 1 25.2288 16.5518 0
95 1 29.3484 28.9282 0
96 1 28.8798 27.0439 0
97 1 29.6254 7.052 0
98 1 5.26401 28.412 0
99 1 14.6084 10.168 0
100 1 16.0161 28.3978 0
101 1 13.4171 9.84603 0
102 1 4.43641 29.5368 0
103 1 18.1187 17.6172 0
104 1 17.5474 10.6413 0
105 1 22.0337 18.1162 0
106 1 9.89896 27.34 0
107 1 11.1242 25.9297 0
108 1 29.5497 13.78 0
109 1 19.0729 13.8239 0
110 1 14.8044 20.4439 0
111 1 10.0233 2.37049 0
112 1 8.25259 12.6385 0
113 1 1.21157 6.62503 0
114 1 2.52067 16.9408 0
115 1 23.2035 4.19834 0
116 1 7.73735 10.0524 0
117 1 15.6386 14.5516 0
118 1 22.5209 22.3209 0
119 1 22.5972 8.04569 0
120 1 28.3253 25.0605 0
121 1 24.0046 4.53529 0
122 1 18.4353 8.76179 0
123 1 21.1721 4.39124 0
124 1 0.869844 27.2712 0
125 1 12.1111 29.6739 0
126 1 17.685 23.1172 0
127 1 11.4403 0.99259 0
128 1 1.76423 26.1584 0
129 1 23.7066 21.6033 0
130 1 3.41574 23.3722 0
131 1 23.0614 29.1365 0
132 1 23.6425 15.0583 0
133 1 29.61 15.7731 0
134 1 17.9984 29.5836 0
135 1 2.55271 7.16623 0
136 1 3.03153 3.98047 0
137 1 19.2502 9.48376 0
138 1 17.9047 8.06495 0
139 1 4.56284 15.1906 0
140 1 11.3183 21.9286 0
141 1 3.50802 12.8789 0
142 1 0.144398 13.0841 0
143 1 22.8288 2.66292 0
144 1 27.05 9.45036 0
145 1 17.3551 13.0247 0
146 1 8.71391 11.0044 0
147 1 19.1335 4.99696 0
148 1 22.0051 24.7498 0
149 1 19.0485 28.1421 0
150 1 10.2508 8.54758 0
151 1 16.4086 15.3444 0
152 1 5.8331 15.8684 0
153 1 9.44421 30.0635 0
154 1 15.4104 2.08684 0
155 1 14.5837 26.5759 0
156 1 2.11593 22.0167 0
157 1 24.479 14.1295 0
158 1 9.52274 4.37175 0
159 1 0.871864 23.7153 0
160 1 0.453364 29.3988 0
161 1 23.4166 19.0799 0
162 1 6.73414 17.5233 0
163 1 1.80927 17.5949 0
164 1 12.4551 7.11559 0
165 1 13.776 16.9133 0
166 1 20.8968 7.81849 0
167 1 22.169 13.8719 0
168 1 26.521 14.4052 0
169 1 28.1222 14.5515 0
170 1 27.5123 14.0041 0
171 1 8.13392 29.2393 0
172 1 17.986 6.78482 0
173 1 7.86116 9.13199 0
174 1 6.21425 12.7946 0
175 1 18.5592 15.2738 0
176 1 24.4029 24.4179 0
177 1 12.7237 23.4062 0
178 1 11.5291 14.4535 0
179 1 25.66 13.321 0
180 1 21.9752 9.36914 0
181 1 6.30373 5.05767 0
182 1 2.61316 2.20152 0
183 1 21.2031 6.00666 0
184 1 1.24348 11.1581 0
185 1 19.9939 1.70382 0
186 1 12.6709 17.5929 0
187 1 28.6518 9.78524 0
188 1 5.87186 27.2671 0
189 1 26.7984 5.26877 0
190 1 28.7744 26.0112 0
191 1 3.10853 8.58698 0
192 1 9.40172 12.6471 0
193 1 29.0124 17.8564 0
194 1 25.1802 25.519 0
ITEM: TIMESTEP
2910
ITEM: NUMBER OF ATOMS
194
ITEM: BOX BOUNDS pp pp pp
0.0000000000000000e+00 3.0000000000000000e+01
0.0000000000000000e+00 3.0000000000000000e+01
-5.0000000000000000e-01 5.0000000000000000e-01
ITEM: ATOMS id type x y z
1 1 16.0318 9.20186 0
2 1 18.5836 1.19708 0
3 1 15.0495 11.3087 0
4 1 5.03979 1.8679 0
5 1 26.86 23.1432 0
6 1 13.4657 8.50698 0
7 1 11.2976 15.4698 0
8 1 22.7095 27.7423 0
9 1 13.5063 22.913 0
10 1 26.313 11.3267 0
11 1 23.444 5.84016 0
12 1 23.4796 10.5438 0
13 1 17.1436 27.204 0
14 1 29.6114 24.1819 0
15 1 5.94796 1.75433 0
16 1 14.855 18.0008 0
17 1 8.79947 19.1935 0
18 1 14.4511 28.6702 0
19 1 28.9965 1.73339 0
20 1 8.24146 27.7557 0
21 1 15.1538 25.1785 0
22 1 24.0954 1.07521 0
23 1 25.3485 1.61007 0
24 1 16.4819 -0.00216879 0
25 1 29.4957 8.39321 0
26 1 23.1483 9.10737 0
27 1 8.85526 15.3791 0
28 1 22.8581 25.3966 0
29 1 11.0938 6.75446 0
30 1 22.5602 26.3912 0
31 1 17.7044 2.68076 0
32 1 26.2809 30.0372 0
33 1 8.57733 22.7584 0
34 1 7.29895 16.1085 0
35 1 15.609 26.8058 0
36 1 13.2374 14.7119 0
37 1 15.4033 17.2098 0
38 1 29.4087 5.95937 0
39 1 25.0238 8.30084 0
40 1 14.7216 8.55408 0
41 1 4.58048 11.7661 0
42 1 22.5801 9.93332 0
43 1 8.54965 16.6718 0
44 1 4.42251 20.9495 0
45 1 5.42463 0.755844 0
46 1 5.30523 9.52125 0
47 1 13.1352 15.7229 0
48 1 1.05932 2.03681 0
49 1 20.8616 0.702486 0
50 1 21.3895 29.2527 0
51 1 22.1165 6.39437 0
52 1 1.44292 10.489 0
53 1 17.5316 22.2182 0
54 1 10.9262 24.4606 0
55 1 24.5582 29.3028 0
56 1 5.37099 17.9906 0
57 1 20.5884 2.32605 0
58 1 0.811671 9.2875 0
59 1 24.9108 3.36733 0
60 1 7.9132 26.1613 0
61 1 5.58755 5.27724 0
62 1 14.9331 5.4061 0
63 1 15.8117 18.6082 0
64 1 9.39421 9.77334 0
65 1 20.5457 15.6194 0
66 1 10.6021 14.9335 0
67 1 6.91504 8.59197 0
68 1 5.28799 18.9545 0
69 1 20.6906 19.2467 0
70 1 15.5019 24.2935 0
71 1 25.2454 14.9141 0
72 1 25.0421 23.2467 0
73 1 25.7959 7.77665 0
74 1 2.77928 9.58525 0
75 1 21.9038 15.39 0
76 1 15.8751 7.62172 0
77 1 4.95723 25.8685 0
78 1 2.28833 20.6613 0
79 1 15.7988 3.55358 0
80 1 11.0156 29.3326 0
81 1 1.96959 9.22257 0
82 1 2.32606 6.42347 0
83 1 19.5244 21.4451 0
84 1 2.31334 5.26669 0
85 1 14.1849 13.8028 0
86 1 3.8257 28.1676 0
87 1 5.83682 11.4788 0
88 1 26.0265 18.0223 0
89 1 22.9682 15.7421 0
90 1 13.2089 3.81362 0
91 1 21.0115 9.612 0
92 1 9.47134 21.0303 0
93 1 22.5266 12.6884 0
94 1 24.8503 16.8314 0
95 1 29.8123 28.921 0
96 1 29.2209 26.844 0
97 1 29.8503 7.12363 0
98 1 5.32813 28.6048 0
99 1 14.6844 9.81302 0
100 1 16.0411 28.5352 0
101 1 13.7187 10.0467 0
102 1 3.82944 29.5092 0
103 1 18.2072 17.7547 0
104 1 17.5211 11.0452 0
105 1 22.1139 17.9779 0
106 1 10.1279 27.6999 0
107 1 11.3525 25.8498 0
108 1 29.5371 14.0516 0
109 1 18.7338 14.1119 0
110 1 15.1309 19.8705 0
111 1 10.2296 2.18502 0
112 1 8.40655 12.5142 0
113 1 1.25073 6.18471 0
114 1 2.75283 16.7074 0
115 1 22.8645 3.97534 0
116 1 8.1197 10.1157 0
117 1 15.5355 14.7406 0
118 1 22.5694 22.1124 0
119 1 22.8273 7.96058 0
120 1 28.5732 24.5599 0
121 1 23.9559 4.53023 0
122 1 18.2857 9.36582 0
123 1 21.3482 4.28045 0
124 1 1.21242 27.1955 0
125 1 12.2642 29.5217 0
126 1 17.7457 23.1779 0
127 1 11.3487 1.0583 0
128 1 2.03494 26.85 0
129 1 23.7829 21.4064 0
130 1 4.07314 23.3695 0
131 1 23.0061 29.0529 0
132 1 23.6363 14.8254 0
133 1 29.5577 15.9435 0
134 1 17.7386 29.5729 0
135 1 2.35197 7.26031 0
136 1 2.86523 3.80341 0
137 1 19.2954 9.63642 0
138 1 17.742 8.45555 0
139 1 4.63863 15.397 0
140 1 11.5874 21.961 0
141 1 2.74337 12.7784 0
142 1 0.166311 12.6147 0
143 1 22.8167 3.09965 0
144 1 26.9727 8.98318 0
145 1 17.3419 13.1345 0
146 1 8.65604 11.0404 0
147 1 18.6944 4.44872 0
148 1 21.8983 24.7333 0
149 1 18.7818 27.9696 0
150 1 10.1679 8.22571 0
151 1 16.164 15.389 0
152 1 5.93389 16.3949 0
153 1 9.5389 0.494473 0
154 1 15.1128 1.67528 0
155 1 14.7829 26.6755 0
156 1 2.30582 22.152 0
157 1 24.387 14.3563 0
158 1 9.302 3.95896 0
159 1 0.533638 23.6373 0
160 1 0.70324 29.4166 0
161 1 23.5552 19.3879 0
162 1 6.32145 17.5368 0
163 1 1.80179 17.7193 0
164 1 12.0098 6.46101 0
165 1 13.6562 16.956 0
166 1 20.6879 7.82484 0
167 1 22.6713 13.9806 0
168 1 26.5339 14.8245 0
169 1 28.4895 14.9653 0
170 1 27.6777 13.64 0
171 1 8.129 29.6275 0
172 1 18.2949 6.49137 0
173 1 7.67596 8.98563 0
174 1 6.35135 13.0093 0
175 1 18.6501 15.5566 0
176 1 24.5225 24.1008 0
177 1 12.5189 23.6369 0
178 1 11.5573 13.6191 0
179 1 25.7393 13.0712 0
180 1 21.9297 9.06262 0
181 1 6.52022 5.07479 0
182 1 2.83754 2.27134 0
183 1 21.1221 6.01129 0
184 1 1.34088 11.4539 0
185 1 19.9411 1.60489 0
186 1 12.4488 17.9948 0
187 1 28.5806 9.87929 0
188 1 6.02733 27.3371 0
189 1 27.2864 5.1754 0
190 1 28.927 25.8971 0
191 1 3.2887 8.56258 0
192 1 9.62703 12.5922 0
193 1 29.0899 17.9422 0
194 1 24.9283 25.7009 0
ITEM: TIMESTEP
2925
ITEM: NUMBER OF ATOMS
194
ITEM: BOX BOUNDS pp pp pp
0.0000000000000000e+00 3.0000000000000000e+01
0.0000000000000000e+00 3.0000000000000000e+01
-5.0000000000000000e-01 5.0000000000000000e-01
ITEM: ATOMS id type x y z
1 1 16.0091 9.34179 0
2 1 18.3899 1.03478 0
3 1 15.0466 11.2309 0
4 1 4.95231 1.90898 0
5 1 26.8376 23.0376 0
6 1 13.294 8.71116 0
7 1 11.3978 15.6555 0
8 1 22.6886 28.1355 0
9 1 13.4979 23.1873 0
10 1 26.3953 11.291 0
11 1 23.0758 5.6741 0
12 1 23.208 10.3697 0
13 1 16.8812 27.4408 0
14 1 29.6875 24.1719 0
15 1 6.2139 1.5999 0
16 1 14.4275 18.2947 0
17 1 9.46155 19.2126 0
18 1 13.9431 27.9124 0
19 1 29.0409 2.07988 0
20 1 8.09859 27.9352 0
21 1 15.022 25.3262 0
22 1 23.7888 1.03907 0
23 1 25.2665 1.73562 0
24 1 16.4391 29.868 0
25 1 29.2777 8.70935 0
26 1 23.2009 8.93392 0
27 1 9.00047 15.5753 0
28 1 22.9723 25.0371 0
29 1 10.7629 6.62926 0
30 1 22.3324 26.0952 0
31 1 17.7815 2.60804 0
32 1 26.2188 0.24295 0
33 1 8.89311 22.5194 0
34 1 7.45964 15.9195 0
35 1 15.8156 26.6589 0
36 1 13.2889 14.6418 0
37 1 15.4158 17.2263 0
38 1 29.3407 6.13498 0
39 1 24.8014 8.55942 0
40 1 14.442 8.67685 0
41 1 4.0888 11.7657 0
42 1 22.6218 9.68816 0
43 1 8.54304 16.8988 0
44 1 4.41153 21.2489 0
45 1 5.84823 0.720122 0
46 1 5.20198 9.95396 0
47 1 12.8317 15.8292 0
48 1 0.675398 2.34842 0
49 1 21.237 0.435036 0
50 1 21.8109 29.0243 0
51 1 22.0061 6.45263 0
52 1 1.08002 10.5295 0
53 1 17.6979 22.2824 0
54 1 11.1307 24.4978 0
55 1 24.0684 29.207 0
56 1 5.08684 17.6813 0
57 1 20.4822 2.35745 0
58 1 0.800631 8.89082 0
59 1 25.309 3.69237 0
60 1 7.66572 26.1008 0
61 1 5.56494 5.23108 0
62 1 15.0395 5.52056 0
63 1 16.1048 18.3995 0
64 1 9.35424 9.35127 0
65 1 20.8561 15.5528 0
66 1 10.6139 14.8699 0
67 1 6.66507 8.50037 0
68 1 5.38954 18.8613 0
69 1 21.0267 19.1077 0
70 1 15.1438 24.3388 0
71 1 25.3361 15.0534 0
72 1 24.9961 22.7402 0
73 1 25.7203 8.12817 0
74 1 3.03196 9.80494 0
75 1 21.614 15.3194 0
76 1 15.3853 7.63769 0
77 1 5.35645 25.73 0
78 1 2.31692 20.3961 0
79 1 15.5919 3.58687 0
80 1 11.0242 29.0951 0
81 1 2.05844 9.21185 0
82 1 2.59893 6.5245 0
83 1 19.6129 21.4882 0
84 1 2.66367 5.44622 0
85 1 14.2444 13.5177 0
86 1 3.8857 28.204 0
87 1 5.88659 11.9791 0
88 1 26.1014 17.8326 0
89 1 22.9509 15.5352 0
90 1 12.9614 3.74328 0
91 1 20.7702 9.61117 0
92 1 9.2454 20.8677 0
93 1 22.2322 13.2716 0
94 1 24.4724 17.1113 0
95 1 0.233682 28.8871 0
96 1 29.5769 26.694 0
97 1 30.0735 7.19267 0
98 1 5.39092 28.7951 0
99 1 14.8055 9.46607 0
100 1 16.066 28.6736 0
101 1 13.9849 10.2561 0
102 1 3.22392 29.4771 0
103 1 18.2957 17.8921 0
104 1 17.495 11.4484 0
105 1 22.1941 17.8401 0
106 1 10.3568 28.0605 0
107 1 11.5799 25.7669 0
108 1 29.521 14.3256 0
109 1 18.3936 14.4022 0
110 1 15.4586 19.2935 0
111 1 10.4367 1.99744 0
112 1 8.56573 12.3874 0
113 1 1.27131 5.74828 0
114 1 2.98369 16.4756 0
115 1 22.4989 4.25149 0
116 1 8.49501 10.1552 0
117 1 15.3026 14.7963 0
118 1 22.6211 21.902 0
119 1 23.0557 7.88105 0
120 1 28.7983 24.0647 0
121 1 23.9191 4.53155 0
122 1 17.8418 9.83707 0
123 1 21.5264 4.1698 0
124 1 1.34923 27.1792 0
125 1 12.4123 29.3695 0
126 1 17.8193 23.2987 0
127 1 11.2552 1.12349 0
128 1 2.51108 27.4828 0
129 1 23.856 21.211 0
130 1 4.73032 23.3665 0
131 1 22.9524 28.9736 0
132 1 23.4641 14.7818 0
133 1 29.5039 16.1123 0
134 1 17.4751 29.5634 0
135 1 2.15631 7.71255 0
136 1 2.69822 3.62575 0
137 1 19.647 9.94131 0
138 1 17.5671 8.82665 0
139 1 4.7156 15.6045 0
140 1 11.8569 21.994 0
141 1 1.97822 12.677 0
142 1 0.189897 12.1447 0
143 1 22.8177 3.03353 0
144 1 26.8946 8.51531 0
145 1 17.3296 13.2448 0
146 1 8.60957 11.106 0
147 1 18.255 3.90022 0
148 1 21.7954 24.7202 0
149 1 18.5141 27.7972 0
150 1 10.0851 7.90382 0
151 1 16.0478 15.5665 0
152 1 6.02495 16.7863 0
153 1 9.63396 0.925431 0
154 1 14.8155 1.26401 0
155 1 14.6009 26.7188 0
156 1 2.49594 22.2847 0
157 1 24.4777 14.4364 0
158 1 9.08144 3.54583 0
159 1 0.272867 23.4944 0
160 1 0.995702 29.4606 0
161 1 23.6935 19.6962 0
162 1 5.99662 17.6617 0
163 1 1.79574 17.842 0
164 1 11.631 5.7888 0
165 1 13.5352 16.9969 0
166 1 20.4805 7.83185 0
167 1 23.1259 14.0156 0
168 1 26.5432 15.2422 0
169 1 28.8662 15.3831 0
170 1 27.8361 13.2719 0
171 1 8.12537 30.0159 0
172 1 18.6037 6.19831 0
173 1 7.77118 8.97934 0
174 1 6.48785 13.222 0
175 1 18.7415 15.8364 0
176 1 24.614 23.8271 0
177 1 12.3166 23.865 0
178 1 11.584 12.7873 0
179 1 25.8187 12.8227 0
180 1 22.0276 8.66635 0
181 1 7.06537 5.00592 0
182 1 3.0609 2.34326 0
183 1 21.0302 6.01122 0
184 1 1.40612 11.8645 0
185 1 19.8254 1.44865 0
186 1 12.2284 18.3953 0
187 1 28.5095 9.97204 0
188 1 6.18102 27.4093 0
189 1 27.7746 5.08211 0
190 1 29.0643 25.7292 0
191 1 3.46654 8.53397 0
192 1 9.84712 12.5365 0
193 1 29.1675 18.0277 0
194 1 24.6755 25.8812 0
ITEM: TIMESTEP
2940
ITEM: NUMBER OF ATOMS
194
ITEM: BOX BOUNDS pp pp pp
0.0000000000000000e+00 3.0000000000000000e+01
0.0000000000000000e+00 3.0000000000000000e+01
-5.0000000000000000e-01 5.0000000000000000e-01
ITEM: ATOMS id type x y z
1 1 15.9871 9.48138 0
2 1 18.1976 0.873416 0
3 1 15.0414 11.15 0
4 1 4.86445 1.94777 0
5 1 26.8145 22.9321 0
6 1 13.122 8.91784 0
7 1 11.5754 15.9066 0
8 1 22.6058 28.133 0
9 1 13.4859 23.4637 0
10 1 26.4771 11.2569 0
11 1 22.7057 5.5085 0
12 1 23.1387 10.4018 0
13 1 16.615 27.6779 0
14 1 29.7527 24.3753 0
15 1 6.52068 1.54495 0
16 1 14.0036 18.5877 0
17 1 10.1235 19.2328 0
18 1 13.4356 27.153 0
19 1 29.0871 2.42666 0
20 1 7.95534 28.1143 0
21 1 14.8663 25.5862 0
22 1 23.4837 1.00294 0
23 1 25.1834 1.86014 0
24 1 16.3614 29.7457 0
25 1 29.0608 9.02709 0
26 1 23.3151 8.70938 0
27 1 9.1436 15.775 0
28 1 23.0807 24.6791 0
29 1 10.4264 6.50797 0
30 1 22.1055 25.7942 0
31 1 17.8589 2.52138 0
32 1 26.156 0.449434 0
33 1 9.2091 22.2792 0
34 1 7.62297 15.733 0
35 1 16.0745 26.5178 0
36 1 13.3412 14.5723 0
37 1 15.4289 17.2471 0
38 1 29.2754 6.31433 0
39 1 24.5106 8.85435 0
40 1 14.0645 8.58294 0
41 1 3.59814 11.7649 0
42 1 22.3971 9.31171 0
43 1 8.53537 17.1203 0
44 1 4.40024 21.5485 0
45 1 6.23089 0.586809 0
46 1 5.0985 10.3868 0
47 1 12.5297 15.9362 0
48 1 0.289979 2.6598 0
49 1 21.6123 0.166391 0
50 1 22.1343 28.8508 0
51 1 21.909 6.51317 0
52 1 0.718398 10.57 0
53 1 17.8591 22.3101 0
54 1 11.3356 24.5399 0
55 1 23.7596 29.1217 0
56 1 4.61916 17.3978 0
57 1 20.381 2.39422 0
58 1 0.793555 8.49499 0
59 1 25.7057 4.01783 0
60 1 7.41789 26.0413 0
61 1 5.54397 5.18469 0
62 1 15.1462 5.63489 0
63 1 16.4231 18.1561 0
64 1 9.3097 8.93116 0
65 1 20.5976 15.6575 0
66 1 10.5496 14.7412 0
67 1 6.39462 8.39904 0
68 1 5.46223 18.8144 0
69 1 21.3636 18.9679 0
70 1 14.8092 24.2766 0
71 1 25.4434 15.2022 0
72 1 24.9515 22.2322 0
73 1 25.7142 8.44465 0
74 1 3.40789 10.0837 0
75 1 21.8973 15.0766 0
76 1 14.8928 7.65769 0
77 1 5.75611 25.592 0
78 1 2.34572 20.1316 0
79 1 15.385 3.62041 0
80 1 11.1084 28.9444 0
81 1 2.0216 9.13641 0
82 1 2.87172 6.59899 0
83 1 19.701 21.5314 0
84 1 3.01211 5.61387 0
85 1 14.3028 13.2358 0
86 1 3.94592 28.2433 0
87 1 5.93694 12.4826 0
88 1 26.1755 17.6426 0
89 1 22.7325 15.5622 0
90 1 12.7139 3.67302 0
91 1 20.56 9.58696 0
92 1 9.01942 20.7052 0
93 1 21.941 13.8583 0
94 1 24.0952 17.3912 0
95 1 0.576167 28.7951 0
96 1 29.9376 26.5538 0
97 1 0.294287 7.25926 0
98 1 5.453 28.9837 0
99 1 15.0359 9.32989 0
100 1 16.0938 28.8112 0
101 1 14.246 10.468 0
102 1 2.61938 29.4416 0
103 1 18.3841 18.0292 0
104 1 17.469 11.8511 0
105 1 22.2737 17.7032 0
106 1 10.5135 28.3355 0
107 1 11.8058 25.6795 0
108 1 29.5021 14.6042 0
109 1 18.0528 14.6938 0
110 1 15.7556 18.745 0
111 1 10.6266 1.8263 0
112 1 8.73003 12.2578 0
113 1 1.29655 5.31299 0
114 1 3.21452 16.2443 0
115 1 22.3045 4.7396 0
116 1 8.85739 10.1075 0
117 1 15.0383 14.8198 0
118 1 22.676 21.6898 0
119 1 23.2774 7.77594 0
120 1 28.8492 23.5449 0
121 1 23.878 4.53343 0
122 1 17.4037 10.3263 0
123 1 21.527 3.99848 0
124 1 1.43154 27.1709 0
125 1 12.5567 29.2167 0
126 1 17.8983 23.4561 0
127 1 11.1761 1.16958 0
128 1 3.04091 28.1088 0
129 1 23.9262 21.0155 0
130 1 5.38742 23.3634 0
131 1 22.8763 29.2275 0
132 1 23.6448 14.9447 0
133 1 29.6008 16.4819 0
134 1 17.2454 29.5446 0
135 1 1.95745 8.20501 0
136 1 2.53233 3.44465 0
137 1 19.9687 10.2671 0
138 1 17.3854 9.18165 0
139 1 4.79295 15.8134 0
140 1 12.1268 22.0276 0
141 1 1.43947 13.0539 0
142 1 0.218394 11.6732 0
143 1 22.8282 2.8178 0
144 1 26.8129 8.04639 0
145 1 17.3187 13.3556 0
146 1 8.57765 11.2553 0
147 1 17.8158 3.36462 0
148 1 21.6982 24.7111 0
149 1 18.2448 27.6248 0
150 1 10.0031 7.58046 0
151 1 15.9614 15.7761 0
152 1 6.09804 16.7424 0
153 1 9.73118 1.35807 0
154 1 14.5185 0.852659 0
155 1 14.3699 26.7561 0
156 1 2.68625 22.4165 0
157 1 24.6214 14.4768 0
158 1 8.86106 3.13245 0
159 1 0.196718 23.1655 0
160 1 1.36777 29.562 0
161 1 23.8319 20.0067 0
162 1 5.90262 18.1478 0
163 1 1.79035 17.964 0
164 1 11.2563 5.11555 0
165 1 13.4132 17.0361 0
166 1 20.2744 7.83947 0
167 1 23.357 13.6389 0
168 1 26.5474 15.6589 0
169 1 29.0943 15.5955 0
170 1 27.9945 12.9042 0
171 1 8.12236 0.404488 0
172 1 18.9126 5.90517 0
173 1 7.8905 8.98703 0
174 1 6.62272 13.4312 0
175 1 18.8327 16.1139 0
176 1 24.7043 23.5551 0
177 1 12.1188 24.0902 0
178 1 11.6098 11.9558 0
179 1 25.8989 12.5732 0
180 1 22.1334 8.27129 0
181 1 7.60891 4.93722 0
182 1 3.28333 2.41928 0
183 1 20.9291 6.00674 0
184 1 1.23978 11.7955 0
185 1 19.7034 1.28544 0
186 1 12.0086 18.7953 0
187 1 28.4398 10.0621 0
188 1 6.33417 27.4824 0
189 1 28.2633 4.98921 0
190 1 29.1981 25.5489 0
191 1 3.63943 8.50911 0
192 1 10.0627 12.4799 0
193 1 29.2452 18.1127 0
194 1 24.422 26.0607 0
ITEM: TIMESTEP
2955
ITEM: NUMBER OF ATOMS
194
ITEM: BOX BOUNDS pp pp pp
0.0000000000000000e+00 3.0000000000000000e+01
0.0000000000000000e+00 3.0000000000000000e+01
-5.0000000000000000e-01 5.0000000000000000e-01
ITEM: ATOMS id type x y z
1 1 16.07 9.64608 0
2 1 18.0058 0.7127 0
3 1 15.1357 11.1481 0
4 1 4.77691 1.98621 0
5 1 26.7912 22.8266 0
6 1 12.9126 9.14103 0
7 1 11.4752 16.1623 0
8 1 22.6979 27.7253 0
9 1 13.473 23.7423 0
10 1 26.5578 11.2259 0
11 1 22.6203 5.8736 0
12 1 23.0711 10.4338 0
13 1 16.3472 27.9126 0
14 1 29.8382 24.5907 0
15 1 6.84847 1.55478 0
16 1 13.5806 18.8793 0
17 1 10.786 19.2534 0
18 1 12.9102 26.4 0
19 1 29.1094 2.76775 0
20 1 7.81102 28.2929 0
21 1 14.7102 25.8492 0
22 1 23.1784 0.965983 0
23 1 25.1004 1.98366 0
24 1 16.1394 29.7902 0
25 1 28.8459 9.34268 0
26 1 23.4374 8.59443 0
27 1 9.28416 15.9766 0
28 1 23.184 24.3235 0
29 1 10.0939 6.37307 0
30 1 21.888 25.5116 0
31 1 17.9721 2.0863 0
32 1 26.0925 0.656864 0
33 1 9.52488 22.0373 0
34 1 7.7888 15.5481 0
35 1 16.3324 26.3801 0
36 1 13.3945 14.5039 0
37 1 15.4455 17.2715 0
38 1 29.2123 6.49523 0
39 1 24.2248 9.15047 0
40 1 13.7127 8.44731 0
41 1 3.10767 11.7627 0
42 1 22.1606 8.95251 0
43 1 8.52793 17.338 0
44 1 4.38852 21.8487 0
45 1 6.59142 0.388399 0
46 1 4.99346 10.8195 0
47 1 12.5073 16.0379 0
48 1 -0.0714846 2.97693 0
49 1 21.9636 -0.0977464 0
50 1 21.8808 28.7994 0
51 1 21.8186 6.57255 0
52 1 0.402535 10.4887 0
53 1 18.0206 22.3376 0
54 1 11.279 24.7423 0
55 1 23.9405 29.0352 0
56 1 4.15148 17.1128 0
57 1 20.2777 2.42736 0
58 1 0.788954 8.10948 0
59 1 26.1018 4.34328 0
60 1 7.16814 25.9823 0
61 1 5.52339 5.13826 0
62 1 15.2528 5.7492 0
63 1 16.8941 17.769 0
64 1 9.26108 8.51356 0
65 1 20.3147 15.7704 0
66 1 10.4862 14.6149 0
67 1 6.12599 8.29857 0
68 1 5.22325 19.2443 0
69 1 21.7017 18.8263 0
70 1 14.4728 24.2159 0
71 1 25.5582 15.3559 0
72 1 24.9047 21.7268 0
73 1 25.7082 8.7608 0
74 1 3.78396 10.361 0
75 1 22.203 14.9642 0
76 1 14.398 7.68171 0
77 1 6.15739 25.4548 0
78 1 2.37454 19.8671 0
79 1 15.1781 3.65429 0
80 1 11.512 29.1454 0
81 1 2.03424 9.40679 0
82 1 3.13613 6.72515 0
83 1 19.7888 21.5748 0
84 1 3.36702 5.73049 0
85 1 14.3608 12.9558 0
86 1 4.3217 28.2799 0
87 1 5.98682 12.9866 0
88 1 26.2495 17.4518 0
89 1 22.5121 15.7791 0
90 1 12.4661 3.60301 0
91 1 20.4683 9.44338 0
92 1 8.79405 20.5437 0
93 1 21.5623 14.215 0
94 1 23.7172 17.671 0
95 1 0.909301 28.6941 0
96 1 0.297188 26.4105 0
97 1 0.509302 7.31378 0
98 1 5.5147 29.1715 0
99 1 15.1778 9.19535 0
100 1 16.0992 28.8225 0
101 1 14.4102 10.5952 0
102 1 2.35226 29.3012 0
103 1 18.472 18.1658 0
104 1 17.4425 12.2542 0
105 1 22.3531 17.5676 0
106 1 10.3543 28.2597 0
107 1 12.0305 25.5864 0
108 1 29.4998 14.84 0
109 1 17.7115 14.985 0
110 1 15.8953 18.3345 0
111 1 10.6844 1.92466 0
112 1 8.91741 12.1997 0
113 1 1.32318 4.87822 0
114 1 3.44756 16.0136 0
115 1 21.9417 4.75413 0
116 1 9.21899 10.0488 0
117 1 14.7752 14.8452 0
118 1 22.7344 21.4757 0
119 1 23.4896 7.54969 0
120 1 28.8798 23.0166 0
121 1 23.8337 4.53642 0
122 1 16.965 10.8166 0
123 1 21.4111 3.77205 0
124 1 1.51293 27.1632 0
125 1 12.6977 29.0634 0
126 1 17.9775 23.6134 0
127 1 11.2965 0.97135 0
128 1 3.25341 28.7415 0
129 1 24.0141 21.0655 0
130 1 6.04441 23.3602 0
131 1 22.7372 29.7629 0
132 1 23.9129 15.0207 0
133 1 29.8126 17.0179 0
134 1 17.1844 29.4845 0
135 1 1.71254 8.35177 0
136 1 2.36927 3.25976 0
137 1 20.1727 10.7108 0
138 1 17.1998 9.53772 0
139 1 4.86977 16.0257 0
140 1 12.397 22.0619 0
141 1 1.01191 13.6872 0
142 1 0.124427 11.3104 0
143 1 22.8382 2.60326 0
144 1 26.728 7.57887 0
145 1 17.3092 13.4658 0
146 1 8.52807 11.3384 0
147 1 17.3412 3.1758 0
148 1 21.5976 24.6816 0
149 1 17.9738 27.4528 0
150 1 9.91709 7.27127 0
151 1 15.8716 15.9848 0
152 1 6.16854 16.6974 0
153 1 9.75984 1.76546 0
154 1 14.2216 0.441132 0
155 1 14.1598 26.7823 0
156 1 2.87707 22.548 0
157 1 24.7696 14.5075 0
158 1 8.64106 2.71856 0
159 1 0.120785 22.8335 0
160 1 1.41426 29.7725 0
161 1 23.9506 20.0754 0
162 1 6.12181 18.1556 0
163 1 1.78513 18.086 0
164 1 10.8807 4.44368 0
165 1 13.2895 17.0736 0
166 1 20.0693 7.84753 0
167 1 23.5844 13.258 0
168 1 26.5468 16.0742 0
169 1 29.1905 15.6856 0
170 1 28.1527 12.5365 0
171 1 8.11877 0.793643 0
172 1 19.2219 5.61217 0
173 1 8.01316 8.996 0
174 1 6.758 13.6397 0
175 1 18.9238 16.3901 0
176 1 24.7953 23.2791 0
177 1 12.1868 24.1597 0
178 1 11.6342 11.1247 0
179 1 25.9806 12.3208 0
180 1 22.2465 7.86694 0
181 1 8.15214 4.86841 0
182 1 3.50428 2.49896 0
183 1 20.8258 6.00035 0
184 1 1.03909 11.482 0
185 1 19.5819 1.12564 0
186 1 11.7883 19.1953 0
187 1 28.3691 10.1541 0
188 1 6.4881 27.5557 0
189 1 28.7527 4.89732 0
190 1 29.3342 25.3721 0
191 1 3.80979 8.48607 0
192 1 10.2749 12.422 0
193 1 29.3234 18.196 0
194 1 24.168 26.2399 0
ITEM: TIMESTEP
2970
ITEM: NUMBER OF ATOMS
194
ITEM: BOX BOUNDS pp pp pp
0.0000000000000000e+00 3.0000000000000000e+01
0.0000000000000000e+00 3.0000000000000000e+01
-5.0000000000000000e-01 5.0000000000000000e-01
ITEM: ATOMS id type x y z
1 1 16.1866 9.84144 0
2 1 17.8138 0.553467 0
3 1 15.4349 11.3052 0
4 1 4.68618 2.02601 0
5 1 26.7675 22.7211 0
6 1 12.6858 9.37583 0
7 1 11.1807 16.427 0
8 1 22.7943 27.3131 0
9 1 13.3659 23.9922 0
10 1 26.6374 11.1982 0
11 1 22.6377 6.36846 0
12 1 23.0039 10.4632 0
13 1 16.1285 27.9164 0
14 1 30.0499 24.6299 0
15 1 7.17827 1.5622 0
16 1 13.1565 19.1704 0
17 1 10.9115 19.2234 0
18 1 12.7231 25.9732 0
19 1 28.7897 3.02047 0
20 1 7.66436 28.4702 0
21 1 14.5647 26.0967 0
22 1 22.8659 0.981091 0
23 1 25.0179 2.10599 0
24 1 15.9024 29.9766 0
25 1 28.7114 9.52226 0
26 1 23.4997 8.47779 0
27 1 9.42249 16.1791 0
28 1 23.2854 23.9688 0
29 1 9.78879 6.07633 0
30 1 21.7528 25.4626 0
31 1 18.097 1.59562 0
32 1 26.0282 0.865438 0
33 1 9.8401 21.7941 0
34 1 7.95635 15.3643 0
35 1 16.5897 26.2448 0
36 1 13.4511 14.4366 0
37 1 15.4525 17.2743 0
38 1 29.1512 6.67634 0
39 1 23.9919 9.48643 0
40 1 13.337 8.35013 0
41 1 2.61779 11.7586 0
42 1 21.9288 8.5985 0
43 1 8.52113 17.5533 0
44 1 4.37556 22.1496 0
45 1 6.95277 0.190822 0
46 1 4.88771 11.2531 0
47 1 12.682 16.1326 0
48 1 29.9091 3.38307 0
49 1 21.7412 29.7407 0
50 1 21.5928 28.729 0
51 1 21.7039 6.64743 0
52 1 0.239155 9.97449 0
53 1 18.1824 22.3698 0
54 1 11.1002 25.0128 0
55 1 24.121 28.9493 0
56 1 3.68552 16.8225 0
57 1 20.1735 2.45868 0
58 1 0.725847 8.07727 0
59 1 26.4977 4.66871 0
60 1 6.9898 25.9928 0
61 1 5.50266 5.09188 0
62 1 15.3593 5.86347 0
63 1 17.3819 17.3677 0
64 1 9.21003 8.09645 0
65 1 20.0304 15.8839 0
66 1 10.4228 14.4896 0
67 1 5.85764 8.19829 0
68 1 4.97152 19.6923 0
69 1 22.0416 18.6815 0
70 1 14.2266 24.1867 0
71 1 25.6742 15.5104 0
72 1 24.9693 21.2534 0
73 1 25.7013 9.076 0
74 1 4.15944 10.6384 0
75 1 22.5766 14.9963 0
76 1 13.947 7.658 0
77 1 6.48688 25.249 0
78 1 2.40311 19.6019 0
79 1 14.9715 3.68841 0
80 1 11.9193 29.3512 0
81 1 2.07942 9.86068 0
82 1 3.39308 6.88734 0
83 1 19.8761 21.6184 0
84 1 3.72938 5.81167 0
85 1 14.4188 12.6764 0
86 1 4.83018 28.3059 0
87 1 6.0032 13.4656 0
88 1 26.3204 17.271 0
89 1 22.4099 16.2465 0
90 1 12.2175 3.53329 0
91 1 20.3817 9.29242 0
92 1 8.56933 20.3834 0
93 1 21.0003 14.1771 0
94 1 23.336 17.9507 0
95 1 1.24677 28.5965 0
96 1 0.657009 26.266 0
97 1 0.58547 6.95417 0
98 1 5.57554 29.3581 0
99 1 15.2428 9.03345 0
100 1 16.0444 28.9306 0
101 1 14.3723 10.5604 0
102 1 2.4667 29.0138 0
103 1 18.5586 18.3013 0
104 1 17.4157 12.6529 0
105 1 22.434 17.4341 0
106 1 10.1921 28.1806 0
107 1 11.9252 25.1661 0
108 1 29.5644 14.896 0
109 1 17.3699 15.275 0
110 1 16.0302 17.9559 0
111 1 10.8405 2.09296 0
112 1 9.15333 12.2582 0
113 1 1.35021 4.443 0
114 1 3.68556 15.7848 0
115 1 21.4999 4.62826 0
116 1 9.57811 9.98943 0
117 1 14.5099 14.8708 0
118 1 22.7977 21.2598 0
119 1 23.6963 7.28611 0
120 1 28.9156 22.4886 0
121 1 23.7882 4.53991 0
122 1 16.5248 11.3025 0
123 1 21.2951 3.54393 0
124 1 1.59111 27.1554 0
125 1 12.8381 28.9096 0
126 1 18.0568 23.7658 0
127 1 11.4477 0.732527 0
128 1 3.46906 29.3646 0
129 1 24.0062 21.3498 0
130 1 6.70127 23.3571 0
131 1 23.2096 0.1676 0
132 1 24.1379 15.1221 0
133 1 30.024 17.5518 0
134 1 17.152 29.416 0
135 1 1.63066 8.37503 0
136 1 2.20908 3.07302 0
137 1 20.3722 11.1601 0
138 1 17.054 9.89863 0
139 1 4.94334 16.2429 0
140 1 12.6674 22.0969 0
141 1 0.583434 14.3207 0
142 1 29.7273 11.3514 0
143 1 22.8481 2.38806 0
144 1 26.6414 7.11295 0
145 1 17.2998 13.58 0
146 1 8.43573 11.3027 0
147 1 16.8555 3.03863 0
148 1 21.4173 24.4176 0
149 1 17.7009 27.281 0
150 1 9.80188 7.12701 0
151 1 15.7795 16.1962 0
152 1 6.2363 16.654 0
153 1 9.65666 2.1442 0
154 1 13.9248 0.0291387 0
155 1 13.9396 26.8215 0
156 1 3.06924 22.6788 0
157 1 24.96 14.5145 0
158 1 8.42309 2.30209 0
159 1 0.0397664 22.5034 0
160 1 0.941793 0.146988 0
161 1 24.0491 19.8818 0
162 1 6.3535 18.1419 0
163 1 1.77993 18.2086 0
164 1 10.5056 3.77168 0
165 1 13.1631 17.1082 0
166 1 19.8653 7.8565 0
167 1 23.8123 12.8793 0
168 1 26.5448 16.4761 0
169 1 29.2217 15.9577 0
170 1 28.3106 12.1682 0
171 1 8.11204 1.18457 0
172 1 19.5329 5.31972 0
173 1 8.14083 9.00453 0
174 1 6.92686 13.8733 0
175 1 19.0164 16.6654 0
176 1 24.8863 23.001 0
177 1 12.3733 24.1615 0
178 1 11.6582 10.2937 0
179 1 26.0641 12.0652 0
180 1 22.3665 7.4538 0
181 1 8.69549 4.79949 0
182 1 3.72554 2.57948 0
183 1 20.7244 5.99385 0
184 1 0.988789 11.197 0
185 1 19.4596 0.968379 0
186 1 12.1061 19.6457 0
187 1 28.2191 10.383 0
188 1 6.64411 27.6297 0
189 1 29.2428 4.80619 0
190 1 29.3462 25.3725 0
191 1 3.97931 8.46329 0
192 1 10.4833 12.363 0
193 1 29.401 18.2788 0
194 1 23.9135 26.4191 0
ITEM: TIMESTEP
2985
ITEM: NUMBER OF ATOMS
194
ITEM: BOX BOUNDS pp pp pp
0.0000000000000000e+00 3.0000000000000000e+01
0.0000000000000000e+00 3.0000000000000000e+01
-5.0000000000000000e-01 5.0000000000000000e-01
ITEM: ATOMS id type x y z
1 1 16.0344 10.0225 0
2 1 17.6104 0.371577 0
3 1 15.4333 11.3996 0
4 1 4.61177 2.05336 0
5 1 26.7434 22.6155 0
6 1 12.5068 9.6 0
7 1 10.8877 16.6909 0
8 1 22.8829 26.9047 0
9 1 13.3052 24.1221 0
10 1 26.7434 11.1365 0
11 1 22.8572 6.44948 0
12 1 22.9391 10.4895 0
13 1 15.9382 27.7596 0
14 1 0.342945 24.5683 0
15 1 7.32255 1.62438 0
16 1 12.8833 19.2927 0
17 1 10.7412 19.1574 0
18 1 12.9158 25.9114 0
19 1 28.423 3.26063 0
20 1 7.51376 28.6455 0
21 1 14.4771 26.2775 0
22 1 22.4928 1.22487 0
23 1 24.9362 2.2269 0
24 1 15.6664 0.17982 0
25 1 28.6345 9.60613 0
26 1 23.5476 8.34479 0
27 1 9.56019 16.3819 0
28 1 23.3866 23.6142 0
29 1 9.48756 5.72149 0
30 1 21.6349 25.4634 0
31 1 18.2337 1.12328 0
32 1 25.9627 1.07539 0
33 1 10.1549 21.5504 0
34 1 8.12437 15.1807 0
35 1 16.848 26.1125 0
36 1 13.498 14.3635 0
37 1 15.3209 17.1632 0
38 1 29.093 6.85751 0
39 1 23.7684 9.83594 0
40 1 12.8568 8.37333 0
41 1 2.1273 11.7529 0
42 1 21.6998 8.24037 0
43 1 8.51482 17.7672 0
44 1 4.35924 22.4519 0
45 1 7.31539 -0.00323826 0
46 1 4.86372 11.7747 0
47 1 12.8496 16.2119 0
48 1 29.9374 3.80378 0
49 1 21.4903 29.6148 0
50 1 21.3006 28.6252 0
51 1 21.5117 6.72812 0
52 1 0.0771509 9.4598 0
53 1 18.3445 22.4055 0
54 1 10.5839 25.2537 0
55 1 24.2997 28.8653 0
56 1 3.22188 16.5438 0
57 1 20.0701 2.49007 0
58 1 0.483007 8.0672 0
59 1 26.8936 4.99428 0
60 1 6.99334 26.2148 0
61 1 5.48138 5.04574 0
62 1 15.4657 5.97766 0
63 1 17.869 16.968 0
64 1 9.14013 7.70391 0
65 1 19.7429 15.9998 0
66 1 10.3593 14.3647 0
67 1 5.58866 8.09815 0
68 1 4.72007 20.1399 0
69 1 22.3306 18.5589 0
70 1 14.2736 24.2374 0
71 1 25.7891 15.6645 0
72 1 25.2227 20.8095 0
73 1 25.6935 9.39126 0
74 1 4.45237 10.828 0
75 1 22.9467 15.0081 0
76 1 13.5992 7.51841 0
77 1 6.63431 24.8327 0
78 1 2.43059 19.3345 0
79 1 14.7653 3.72259 0
80 1 12.3015 29.5731 0
81 1 2.12259 10.3137 0
82 1 3.64999 7.0529 0
83 1 19.9628 21.6623 0
84 1 4.09269 5.89063 0
85 1 14.4774 12.3962 0
86 1 5.34066 28.3365 0
87 1 5.9822 13.9252 0
88 1 26.2486 17.5747 0
89 1 22.2871 16.5842 0
90 1 11.9676 3.46333 0
91 1 20.2954 9.13966 0
92 1 8.34501 20.2236 0
93 1 20.4392 14.1405 0
94 1 23.027 18.2215 0
95 1 1.58173 28.4975 0
96 1 1.01854 26.1229 0
97 1 0.631807 6.50409 0
98 1 5.63508 29.5412 0
99 1 15.309 8.87443 0
100 1 15.9701 29.182 0
101 1 14.3341 10.5236 0
102 1 2.44801 28.7346 0
103 1 18.6437 18.4341 0
104 1 17.4102 12.8774 0
105 1 22.5191 17.437 0
106 1 10.0303 28.1018 0
107 1 11.6257 24.5542 0
108 1 29.4163 14.9973 0
109 1 17.0277 15.5648 0
110 1 16.294 17.7209 0
111 1 11.0024 2.26155 0
112 1 9.39506 12.3202 0
113 1 1.37706 4.00578 0
114 1 3.9285 15.5443 0
115 1 21.0577 4.5069 0
116 1 9.93587 9.92992 0
117 1 14.2545 14.9028 0
118 1 22.8652 21.0435 0
119 1 23.8948 7.02481 0
120 1 28.9494 21.9603 0
121 1 23.7423 4.54352 0
122 1 16.3877 11.8478 0
123 1 21.1772 3.31231 0
124 1 1.6653 27.1472 0
125 1 13.0041 28.7442 0
126 1 18.1364 23.9145 0
127 1 11.5987 0.493393 0
128 1 3.82139 29.9795 0
129 1 23.8052 21.6028 0
130 1 7.35801 23.3547 0
131 1 23.7776 0.341502 0
132 1 24.3337 15.2438 0
133 1 0.319279 18.0072 0
134 1 17.1135 29.3504 0
135 1 1.75605 8.46908 0
136 1 2.04956 2.88721 0
137 1 20.5717 11.6085 0
138 1 17.1729 10.278 0
139 1 5.01379 16.4618 0
140 1 12.9379 22.1324 0
141 1 0.375468 14.8864 0
142 1 29.3253 11.3936 0
143 1 22.8579 2.17031 0
144 1 26.5547 6.64718 0
145 1 17.2681 13.8679 0
146 1 8.34306 11.2627 0
147 1 16.37 2.90087 0
148 1 21.2208 24.1038 0
149 1 17.4249 27.108 0
150 1 9.69794 7.01775 0
151 1 15.7009 16.376 0
152 1 6.30041 16.6119 0
153 1 9.54125 2.5204 0
154 1 13.6264 29.6152 0
155 1 13.6586 26.9251 0
156 1 3.2648 22.8083 0
157 1 25.1815 14.5053 0
158 1 8.2906 2.23313 0
159 1 -0.0393469 22.1741 0
160 1 0.470323 0.518602 0
161 1 24.1476 19.692 0
162 1 6.58478 18.1257 0
163 1 1.77513 18.3333 0
164 1 10.1337 3.09994 0
165 1 13.0417 17.1582 0
166 1 19.6626 7.86731 0
167 1 24.0406 12.5012 0
168 1 26.6816 16.3894 0
169 1 29.2457 16.2533 0
170 1 28.4688 11.7977 0
171 1 8.20871 1.16784 0
172 1 19.8479 5.02919 0
173 1 8.27212 9.01149 0
174 1 7.13362 14.1271 0
175 1 19.1109 16.9392 0
176 1 24.977 22.7215 0
177 1 12.3757 24.0618 0
178 1 11.6367 9.46981 0
179 1 26.1227 11.8433 0
180 1 22.3652 7.45312 0
181 1 9.24008 4.73166 0
182 1 3.92874 2.67312 0
183 1 20.6244 5.98629 0
184 1 0.940775 10.9096 0
185 1 19.3341 0.813268 0
186 1 12.5688 20.3006 0
187 1 28.0138 10.7105 0
188 1 6.80316 27.7056 0
189 1 29.7335 4.71419 0
190 1 29.2788 25.4752 0
191 1 4.14882 8.43942 0
192 1 10.6869 12.3038 0
193 1 29.3951 18.4392 0
194 1 23.666 26.5953 0
ITEM: TIMESTEP
3000
ITEM: NUMBER OF ATOMS
194
ITEM: BOX BOUNDS pp pp pp
0.0000000000000000e+00 3.0000000000000000e+01
0.0000000000000000e+00 3.0000000000000000e+01
-5.0000000000000000e-01 5.0000000000000000e-01
ITEM: ATOMS id type x y z
1 1 15.8514 10.2004 0
2 1 17.3754 0.152066 0
3 1 15.1005 11.4064 0
4 1 4.63989 1.98502 0
5 1 26.7185 22.5098 0
6 1 12.5594 9.81776 0
7 1 10.5933 16.9543 0
8 1 22.5681 26.6272 0
9 1 13.501 24.2088 0
10 1 26.919 10.9883 0
11 1 23.2275 6.14267 0
12 1 22.8094 10.5578 0
13 1 15.7496 27.6047 0
14 1 0.634071 24.5099 0
15 1 7.26588 1.75162 0
16 1 12.7845 19.1893 0
17 1 10.5717 19.0916 0
18 1 13.1125 25.8518 0
19 1 28.0584 3.50196 0
20 1 7.35974 28.8208 0
21 1 14.4128 26.435 0
22 1 22.0835 1.41803 0
23 1 24.8556 2.34595 0
24 1 15.4264 0.401283 0
25 1 28.5595 9.69265 0
26 1 23.594 8.20868 0
27 1 9.69886 16.5853 0
28 1 23.4884 23.2587 0
29 1 9.17987 5.46069 0
30 1 21.5165 25.4614 0
31 1 18.3714 0.702721 0
32 1 25.8956 1.28692 0
33 1 10.4696 21.3066 0
34 1 8.29056 14.9952 0
35 1 17.1047 25.9723 0
36 1 13.4386 14.2096 0
37 1 15.0563 17.2549 0
38 1 29.0374 7.03867 0
39 1 23.6098 10.1406 0
40 1 12.3654 8.41224 0
41 1 1.63474 11.7422 0
42 1 21.352 7.95625 0
43 1 8.50863 17.9804 0
44 1 4.35295 22.7517 0
45 1 7.67949 29.8036 0
46 1 4.88111 12.3558 0
47 1 13.0032 16.2176 0
48 1 30.0009 3.86002 0
49 1 21.2475 29.5305 0
50 1 21.0008 28.4804 0
51 1 21.307 6.80298 0
52 1 29.9137 8.94537 0
53 1 18.5071 22.4433 0
54 1 10.0234 25.4963 0
55 1 24.4776 28.7828 0
56 1 2.76045 16.2653 0
57 1 19.9695 2.52322 0
58 1 0.240706 8.05637 0
59 1 27.289 5.32137 0
60 1 6.99787 26.4406 0
61 1 5.45866 5.00054 0
62 1 15.5719 6.0918 0
63 1 18.3569 16.5677 0
64 1 8.92599 7.48734 0
65 1 19.4539 16.1165 0
66 1 10.2955 14.2398 0
67 1 5.31662 7.99859 0
68 1 4.46854 20.5876 0
69 1 21.953 18.7614 0
70 1 14.4482 24.3037 0
71 1 25.8989 15.8143 0
72 1 25.4733 20.3654 0
73 1 25.6854 9.70696 0
74 1 4.70376 10.9582 0
75 1 23.32 15.0219 0
76 1 13.26 7.3693 0
77 1 6.78111 24.4141 0
78 1 2.46224 19.0705 0
79 1 14.5599 3.75651 0
80 1 12.664 29.8085 0
81 1 2.16136 10.7708 0
82 1 3.90982 7.21682 0
83 1 20.0486 21.7065 0
84 1 4.45566 5.97335 0
85 1 14.5361 12.1161 0
86 1 5.85446 28.3715 0
87 1 5.9614 14.3841 0
88 1 26.1519 17.9578 0
89 1 22.0739 16.48 0
90 1 11.7153 3.39121 0
91 1 20.2087 8.98312 0
92 1 8.12085 20.0639 0
93 1 19.878 14.1042 0
94 1 23.4939 18.2956 0
95 1 1.64822 28.3263 0
96 1 1.38168 25.9828 0
97 1 0.67596 6.05617 0
98 1 5.69413 29.7193 0
99 1 15.3771 8.71932 0
100 1 15.9049 29.4123 0
101 1 14.2999 10.4891 0
102 1 2.69855 28.5234 0
103 1 18.7286 18.5637 0
104 1 17.4182 12.989 0
105 1 22.5867 17.7527 0
106 1 9.86849 28.023 0
107 1 10.9517 24.2849 0
108 1 28.8673 15.2098 0
109 1 16.6843 15.856 0
110 1 16.5821 17.5054 0
111 1 11.1647 2.4323 0
112 1 9.64001 12.3801 0
113 1 1.40185 3.56625 0
114 1 4.17288 15.3055 0
115 1 20.7343 4.31023 0
116 1 10.2938 9.87003 0
117 1 14.1054 15.0167 0
118 1 22.9319 20.8258 0
119 1 24.0871 6.76641 0
120 1 28.959 21.4261 0
121 1 23.6963 4.5475 0
122 1 16.5819 12.4756 0
123 1 21.0558 3.08233 0
124 1 1.73683 27.1398 0
125 1 13.1168 28.4448 0
126 1 18.2164 24.0608 0
127 1 11.7481 0.254911 0
128 1 4.17358 0.593673 0
129 1 23.6081 21.8569 0
130 1 8.01408 23.3535 0
131 1 24.3472 0.511178 0
132 1 24.5264 15.367 0
133 1 0.678583 18.4199 0
134 1 17.0665 29.275 0
135 1 1.8798 8.56336 0
136 1 1.88911 2.7037 0
137 1 20.7712 12.0568 0
138 1 17.3177 10.6615 0
139 1 5.08563 16.6793 0
140 1 13.208 22.1676 0
141 1 0.567294 15.3466 0
142 1 29.334 11.2658 0
143 1 22.9027 2.00557 0
144 1 26.4685 6.17978 0
145 1 17.221 14.268 0
146 1 8.25266 11.2245 0
147 1 15.8837 2.76346 0
148 1 21.0256 23.7931 0
149 1 17.1486 26.9443 0
150 1 9.7363 6.72976 0
151 1 15.734 16.3312 0
152 1 6.3601 16.5713 0
153 1 8.96439 2.44393 0
154 1 13.403 29.3214 0
155 1 13.35 27.0481 0
156 1 3.45037 22.9402 0
157 1 25.407 14.499 0
158 1 8.15439 2.61513 0
159 1 29.9055 21.8508 0
160 1 -0.00101531 0.889962 0
161 1 24.2464 19.5039 0
162 1 6.81602 18.1071 0
163 1 1.76336 18.4537 0
164 1 10.3243 2.87442 0
165 1 12.9345 17.2814 0
166 1 19.4622 7.88092 0
167 1 24.2691 12.1229 0
168 1 26.8438 16.2223 0
169 1 29.2709 16.5438 0
170 1 28.2577 11.6547 0
171 1 8.40882 0.637295 0
172 1 20.0475 4.81592 0
173 1 8.4052 9.0171 0
174 1 7.34242 14.3837 0
175 1 19.2043 17.2149 0
176 1 25.0669 22.4408 0
177 1 12.4133 23.6469 0
178 1 11.3857 8.64673 0
179 1 26.1074 11.7073 0
180 1 22.3483 7.77323 0
181 1 9.79219 4.57378 0
182 1 4.02863 2.86222 0
183 1 20.5244 5.97506 0
184 1 0.896759 10.6215 0
185 1 19.2426 0.654056 0
186 1 12.8567 21.1818 0
187 1 27.774 10.9768 0
188 1 6.96289 27.7829 0
189 1 0.190668 4.9864 0
190 1 29.2144 25.5763 0
191 1 4.32002 8.41211 0
192 1 10.8854 12.2448 0
193 1 29.3279 18.6424 0
194 1 23.8215 26.6403 0
ITEM: TIMESTEP
3015
ITEM: NUMBER OF ATOMS
194
ITEM: BOX BOUNDS pp pp pp
0.0000000000000000e+00 3.0000000000000000e+01
0.0000000000000000e+00 3.0000000000000000e+01
-5.0000000000000000e-01 5.0000000000000000e-01
ITEM: ATOMS id type x y z
1 1 15.6661 10.3806 0
2 1 17.1798 0.0642184 0
3 1 14.9576 11.1525 0
4 1 4.70205 1.92508 0
5 1 26.6921 22.404 0
6 1 12.6149 10.0325 0
7 1 10.4614 17.3039 0
8 1 22.1735 26.3673 0
9 1 13.5598 24.2811 0
10 1 26.5846 10.815 0
11 1 23.5834 5.82455 0
12 1 22.4961 10.7298 0
13 1 15.5626 27.4491 0
14 1 0.925 24.4534 0
15 1 7.21463 1.88083 0
16 1 12.6854 19.0863 0
17 1 10.4022 19.0257 0
18 1 13.3136 25.797 0
19 1 27.6943 3.74385 0
20 1 7.19081 28.9738 0
21 1 14.3429 26.593 0
22 1 21.6294 1.56303 0
23 1 24.7764 2.46245 0
24 1 15.1853 0.627037 0
25 1 28.4852 9.7822 0
26 1 23.6366 8.06921 0
27 1 9.67443 16.7033 0
28 1 23.5928 22.9134 0
29 1 8.85844 5.27365 0
30 1 21.3993 25.46 0
31 1 18.26 0.300435 0
32 1 25.8253 1.49969 0
33 1 10.7844 21.0625 0
34 1 8.46952 14.814 0
35 1 17.3583 25.7769 0
36 1 13.343 14.0214 0
37 1 14.7781 17.3747 0
38 1 28.9842 7.22107 0
39 1 23.6355 10.3414 0
40 1 11.9547 8.45645 0
41 1 1.13801 11.7289 0
42 1 20.8646 7.7537 0
43 1 8.5018 18.1933 0
44 1 4.50374 23.0217 0
45 1 8.00645 29.5853 0
46 1 4.89815 12.9339 0
47 1 13.1568 16.1987 0
48 1 0.0753812 3.73471 0
49 1 21.007 29.4575 0
50 1 20.6988 28.3245 0
51 1 21.106 6.86547 0
52 1 29.6339 8.70857 0
53 1 18.6705 22.482 0
54 1 9.46451 25.737 0
55 1 24.6553 28.7013 0
56 1 2.30013 15.9859 0
57 1 19.8731 2.55861 0
58 1 0.112868 7.76775 0
59 1 27.6819 5.65086 0
60 1 7.00216 26.6706 0
61 1 5.43334 4.958 0
62 1 15.6782 6.20593 0
63 1 18.4638 16.2612 0
64 1 8.6846 7.30133 0
65 1 19.5397 16.1375 0
66 1 10.2315 14.1142 0
67 1 5.11304 7.85477 0
68 1 4.21694 21.0356 0
69 1 21.56 18.9693 0
70 1 14.7606 24.385 0
71 1 25.9807 15.9511 0
72 1 25.7217 19.9201 0
73 1 25.678 10.0241 0
74 1 4.95554 11.0914 0
75 1 23.6978 15.0375 0
76 1 12.9182 7.22339 0
77 1 6.92909 23.995 0
78 1 2.60661 18.8942 0
79 1 14.3556 3.78957 0
80 1 12.8907 30.1515 0
81 1 2.19709 11.2263 0
82 1 4.17443 7.38177 0
83 1 20.1335 21.7514 0
84 1 4.81959 6.05765 0
85 1 14.4068 12.0914 0
86 1 6.36944 28.4121 0
87 1 5.94414 14.8435 0
88 1 26.0554 18.34 0
89 1 21.8612 16.3751 0
90 1 11.4798 3.38503 0
91 1 20.1212 8.82098 0
92 1 7.8967 19.9037 0
93 1 19.3168 14.0681 0
94 1 24.0345 18.4158 0
95 1 1.60411 28.1275 0
96 1 1.74545 25.8465 0
97 1 0.921219 6.0519 0
98 1 5.75378 29.8934 0
99 1 15.4457 8.56651 0
100 1 15.8468 29.6371 0
101 1 14.2688 10.4566 0
102 1 3.05898 28.3368 0
103 1 18.8144 18.6896 0
104 1 17.5962 13.1744 0
105 1 22.5972 18.0185 0
106 1 9.7067 27.9442 0
107 1 10.2764 24.0178 0
108 1 28.3202 15.4261 0
109 1 16.5203 16.0799 0
110 1 16.8664 17.2849 0
111 1 11.4372 2.47792 0
112 1 9.88973 12.4393 0
113 1 1.35955 3.24407 0
114 1 4.41747 15.0688 0
115 1 20.899 3.79322 0
116 1 10.6525 9.80915 0
117 1 13.9914 15.1665 0
118 1 23.0008 20.6107 0
119 1 24.2921 6.52149 0
120 1 28.9471 20.8832 0
121 1 23.6499 4.55322 0
122 1 16.6045 13.0316 0
123 1 20.9302 2.85015 0
124 1 1.80761 27.1304 0
125 1 13.1236 27.926 0
126 1 18.2964 24.2057 0
127 1 11.8625 0.0288148 0
128 1 4.51687 1.17135 0
129 1 23.409 22.0977 0
130 1 8.66909 23.3533 0
131 1 24.9179 0.681373 0
132 1 24.7212 15.4864 0
133 1 0.930218 18.8558 0
134 1 16.9706 29.0644 0
135 1 2.00202 8.65762 0
136 1 1.79207 2.4041 0
137 1 20.9706 12.5052 0
138 1 17.4597 11.0449 0
139 1 5.16173 16.8953 0
140 1 13.6751 22.5749 0
141 1 0.757316 15.8074 0
142 1 29.5561 11.0529 0
143 1 22.9924 1.88918 0
144 1 26.3849 5.70966 0
145 1 17.1738 14.6659 0
146 1 8.16303 11.1865 0
147 1 15.3963 2.62682 0
148 1 20.8306 23.4835 0
149 1 16.8732 26.837 0
150 1 9.79995 6.40869 0
151 1 15.606 16.3294 0
152 1 6.41514 16.5324 0
153 1 8.85821 2.22336 0
154 1 13.4577 29.157 0
155 1 13.0424 27.1344 0
156 1 3.47886 23.1014 0
157 1 25.6301 14.4998 0
158 1 7.44017 3.06277 0
159 1 29.8718 21.5362 0
160 1 29.5276 1.26132 0
161 1 24.3458 19.3165 0
162 1 7.04801 18.0868 0
163 1 1.7434 18.4634 0
164 1 10.4905 2.78247 0
165 1 12.8286 17.428 0
166 1 19.2654 7.89802 0
167 1 24.498 11.7441 0
168 1 27.0294 16.0646 0
169 1 29.296 16.8304 0
170 1 28.0987 11.9784 0
171 1 8.65682 0.157593 0
172 1 19.7618 4.92806 0
173 1 8.5391 9.02151 0
174 1 7.53476 14.6362 0
175 1 19.3017 17.4956 0
176 1 25.1558 22.1595 0
177 1 12.4501 23.2316 0
178 1 11.0533 7.81936 0
179 1 26.0707 11.5931 0
180 1 22.4689 8.02425 0
181 1 10.36 4.34498 0
182 1 4.10395 3.07882 0
183 1 20.4237 5.95961 0
184 1 0.858321 10.3373 0
185 1 19.4035 0.480205 0
186 1 12.9469 21.6919 0
187 1 27.8011 10.8588 0
188 1 7.12304 27.8545 0
189 1 0.438454 4.99596 0
190 1 29.1511 25.6767 0
191 1 4.41943 8.42385 0
192 1 11.0784 12.1867 0
193 1 29.2639 18.8448 0
194 1 24.0552 26.6662 0
ITEM: TIMESTEP
3030
ITEM: NUMBER OF ATOMS
194
ITEM: BOX BOUNDS pp pp pp
0.0000000000000000e+00 3.0000000000000000e+01
0.0000000000000000e+00 3.0000000000000000e+01
-5.0000000000000000e-01 5.0000000000000000e-01
ITEM: ATOMS id type x y z
1 1 15.6187 10.4444 0
2 1 16.9962 0.0402272 0
3 1 14.8425 10.9751 0
4 1 4.92661 2.53646 0
5 1 26.6636 22.2979 0
6 1 12.6707 10.2462 0
7 1 10.469 17.7402 0
8 1 21.7934 26.1249 0
9 1 13.6154 24.3525 0
10 1 26.3343 10.6363 0
11 1 23.9046 5.47137 0
12 1 22.1755 10.9057 0
13 1 15.3764 27.291 0
14 1 1.21654 24.3985 0
15 1 7.16563 2.01427 0
16 1 12.5862 18.9818 0
17 1 10.2327 18.9584 0
18 1 13.5182 25.7475 0
19 1 27.3301 3.98641 0
20 1 7.1382 29.2543 0
21 1 14.2675 26.7513 0
22 1 21.1783 1.70626 0
23 1 24.6991 2.57571 0
24 1 14.9467 0.849602 0
25 1 28.4122 9.87275 0
26 1 23.676 7.9282 0
27 1 9.50983 16.7364 0
28 1 23.8109 22.9715 0
29 1 8.53989 5.08825 0
30 1 21.2684 25.4409 0
31 1 18.1195 29.8972 0
32 1 25.7568 1.72484 0
33 1 11.0993 20.8181 0
34 1 8.73174 14.6477 0
35 1 17.6125 25.5741 0
36 1 13.2494 13.8366 0
37 1 14.5027 17.4901 0
38 1 28.9352 7.40648 0
39 1 23.6698 10.5396 0
40 1 11.5961 8.51121 0
41 1 0.640482 11.7119 0
42 1 20.3344 7.68744 0
43 1 8.49245 18.4063 0
44 1 4.72363 23.2822 0
45 1 8.14214 29.1874 0
46 1 4.91521 13.5119 0
47 1 13.3121 16.1812 0
48 1 0.154618 3.61071 0
49 1 20.7651 29.3819 0
50 1 20.3977 28.1718 0
51 1 20.9459 6.79495 0
52 1 29.2747 8.64862 0
53 1 18.8352 22.521 0
54 1 8.90596 25.9774 0
55 1 24.833 28.62 0
56 1 1.8379 15.7064 0
57 1 19.7718 2.59427 0
58 1 0.0596746 7.30016 0
59 1 28.0714 5.98054 0
60 1 7.00593 26.903 0
61 1 5.40547 4.91982 0
62 1 15.7844 6.32018 0
63 1 18.0976 16.07 0
64 1 8.44585 7.1139 0
65 1 20.0981 16.0485 0
66 1 10.1667 13.9875 0
67 1 5.23296 7.61538 0
68 1 3.96533 21.4842 0
69 1 21.1697 19.1747 0
70 1 15.0737 24.4664 0
71 1 26.0409 16.0803 0
72 1 25.967 19.4882 0
73 1 25.5108 10.2398 0
74 1 5.20732 11.2255 0
75 1 24.0729 15.0511 0
76 1 12.5746 7.07925 0
77 1 7.07771 23.5756 0
78 1 2.85032 18.7745 0
79 1 14.1526 3.8211 0
80 1 13.117 0.520063 0
81 1 2.22972 11.6805 0
82 1 4.30423 7.49199 0
83 1 20.2172 21.7978 0
84 1 5.18481 6.14105 0
85 1 14.1963 12.1827 0
86 1 6.60015 28.407 0
87 1 5.9267 15.3041 0
88 1 25.9583 18.7079 0
89 1 21.6488 16.2711 0
90 1 11.318 3.5178 0
91 1 20.0324 8.65207 0
92 1 7.67269 19.7424 0
93 1 18.7546 14.0318 0
94 1 24.527 18.3165 0
95 1 1.55121 27.9746 0
96 1 2.10862 25.714 0
97 1 1.37341 6.50367 0
98 1 5.81451 0.06593 0
99 1 15.5143 8.41456 0
100 1 15.7942 29.8639 0
101 1 14.1528 10.3474 0
102 1 3.41576 28.1491 0
103 1 18.902 18.8109 0
104 1 17.9344 13.4137 0
105 1 22.6075 18.2869 0
106 1 9.54471 27.8654 0
107 1 9.74485 23.8714 0
108 1 27.8609 15.6006 0
109 1 16.6422 16.2049 0
110 1 17.1496 17.0606 0
111 1 11.7764 2.29113 0
112 1 10.1445 12.4984 0
113 1 1.23092 3.07907 0
114 1 4.66451 14.8321 0
115 1 21.0725 3.43138 0
116 1 11.0122 9.74729 0
117 1 13.8737 15.3161 0
118 1 23.0709 20.3976 0
119 1 24.5319 6.31251 0
120 1 28.9343 20.3395 0
121 1 23.6028 4.55949 0
122 1 16.4675 13.5369 0
123 1 20.8016 2.46359 0
124 1 1.89056 27.0711 0
125 1 13.1906 27.9625 0
126 1 18.3763 24.3505 0
127 1 11.9488 29.8047 0
128 1 4.69649 1.08093 0
129 1 23.0974 21.932 0
130 1 9.1796 23.2331 0
131 1 25.4839 0.841983 0
132 1 24.9264 15.6059 0
133 1 0.927973 19.3762 0
134 1 16.8535 28.7913 0
135 1 2.12371 8.75206 0
136 1 1.77713 1.94944 0
137 1 21.1701 12.9536 0
138 1 17.601 11.4286 0
139 1 5.24261 17.1093 0
140 1 14.3018 23.2708 0
141 1 0.948578 16.2688 0
142 1 29.7788 10.8388 0
143 1 23.0802 1.77246 0
144 1 26.3049 5.23908 0
145 1 17.1263 15.0632 0
146 1 8.07367 11.1486 0
147 1 14.9076 2.49124 0
148 1 20.6353 23.1734 0
149 1 16.5948 26.7379 0
150 1 9.85996 6.08806 0
151 1 15.1918 16.4311 0
152 1 6.46561 16.4947 0
153 1 8.75644 2.00165 0
154 1 13.5413 28.964 0
155 1 12.6797 26.66 0
156 1 3.4383 23.2717 0
157 1 25.8506 14.507 0
158 1 6.72054 3.50708 0
159 1 29.8392 21.2218 0
160 1 29.0563 1.63272 0
161 1 24.4935 19.3493 0
162 1 7.28262 18.0659 0
163 1 1.87637 18.3323 0
164 1 10.5589 2.72979 0
165 1 12.724 17.5722 0
166 1 19.0745 7.91848 0
167 1 24.7285 11.3631 0
168 1 27.1444 15.9532 0
169 1 29.321 17.1158 0
170 1 27.9573 12.3278 0
171 1 9.12932 29.8825 0
172 1 19.4774 5.04568 0
173 1 8.67326 9.02511 0
174 1 7.64253 14.8741 0
175 1 19.3964 17.7753 0
176 1 25.2449 21.8788 0
177 1 12.4918 22.8152 0
178 1 10.6696 6.98127 0
179 1 25.9697 11.584 0
180 1 22.5907 8.27454 0
181 1 10.883 4.17103 0
182 1 4.18142 3.29143 0
183 1 20.3203 5.94025 0
184 1 0.819893 10.058 0
185 1 19.5949 0.306627 0
186 1 12.874 21.9181 0
187 1 27.9512 10.7154 0
188 1 7.41658 27.8196 0
189 1 0.47817 4.54678 0
190 1 29.0881 25.777 0
191 1 4.3312 8.58227 0
192 1 11.2663 12.1297 0
193 1 29.2013 19.0474 0
194 1 24.288 26.6923 0
ITEM: TIMESTEP
3045
ITEM: NUMBER OF ATOMS
194
ITEM: BOX BOUNDS pp pp pp
0.0000000000000000e+00 3.0000000000000000e+01
0.0000000000000000e+00 3.0000000000000000e+01
-5.0000000000000000e-01 5.0000000000000000e-01
ITEM: ATOMS id type x y z
1 1 15.7956 10.3345 0
2 1 16.8093 0.0117499 0
3 1 14.6223 11.0831 0
4 1 5.17803 3.16912 0
5 1 26.6324 22.1909 0
6 1 12.7283 10.4595 0
7 1 10.4829 18.1578 0
8 1 21.5942 26.1203 0
9 1 13.676 24.4239 0
10 1 26.5115 10.6473 0
11 1 24.2547 5.19186 0
12 1 21.8572 11.0812 0
13 1 15.1916 27.1298 0
14 1 1.50914 24.3451 0
15 1 7.11777 2.14994 0
16 1 12.4873 18.8738 0
17 1 10.0547 18.9079 0
18 1 13.7232 25.7022 0
19 1 26.9657 4.22983 0
20 1 7.18324 29.6821 0
21 1 14.1886 26.9081 0
22 1 20.9863 1.3279 0
23 1 24.6247 2.68556 0
24 1 14.7105 1.06981 0
25 1 28.4136 9.82014 0
26 1 23.7135 7.78733 0
27 1 9.34668 16.7718 0
28 1 24.0534 23.0944 0
29 1 8.22248 4.90405 0
30 1 20.9566 25.184 0
31 1 17.9795 29.4942 0
32 1 25.716 2.05849 0
33 1 11.4145 20.5736 0
34 1 9.01274 14.4812 0
35 1 17.8667 25.3707 0
36 1 13.1569 13.6531 0
37 1 14.2285 17.6002 0
38 1 28.8887 7.59249 0
39 1 23.7061 10.7405 0
40 1 11.2361 8.5676 0
41 1 0.143445 11.6925 0
42 1 19.797 7.5845 0
43 1 8.47879 18.6195 0
44 1 4.93984 23.5421 0
45 1 8.29695 28.7803 0
46 1 4.95352 13.9034 0
47 1 13.4294 16.237 0
48 1 0.187535 3.35795 0
49 1 20.5196 29.3033 0
50 1 20.0981 28.0242 0
51 1 20.8112 6.70446 0
52 1 28.9145 8.58701 0
53 1 19.0023 22.5599 0
54 1 8.34722 26.2183 0
55 1 25.0106 28.5384 0
56 1 1.38149 15.4216 0
57 1 19.6072 2.64151 0
58 1 0.00438379 6.83398 0
59 1 28.461 6.31118 0
60 1 6.98842 27.1016 0
61 1 5.37704 4.88562 0
62 1 15.8906 6.43473 0
63 1 17.7428 15.8919 0
64 1 8.20826 6.92595 0
65 1 20.6494 15.9587 0
66 1 10.1001 13.8587 0
67 1 5.58696 7.42509 0
68 1 3.71371 21.9339 0
69 1 20.7804 19.3793 0
70 1 15.3993 24.5691 0
71 1 25.8834 16.2308 0
72 1 26.2372 19.7864 0
73 1 24.9462 10.18 0
74 1 5.45909 11.3598 0
75 1 24.4205 15.0452 0
76 1 12.2299 6.93599 0
77 1 7.22656 23.1562 0
78 1 3.11071 18.6629 0
79 1 13.9508 3.85067 0
80 1 13.3422 0.885395 0
81 1 2.25993 12.1347 0
82 1 4.20439 7.53789 0
83 1 20.2999 21.8479 0
84 1 5.5502 6.22368 0
85 1 13.9876 12.2697 0
86 1 6.61564 28.3171 0
87 1 5.90482 15.7626 0
88 1 25.8325 18.346 0
89 1 21.4423 16.1688 0
90 1 11.5747 3.079 0
91 1 19.9301 8.54979 0
92 1 7.4496 19.5782 0
93 1 18.5365 14.3564 0
94 1 24.9976 18.0627 0
95 1 1.47161 27.8995 0
96 1 2.47011 25.5841 0
97 1 1.82377 6.95594 0
98 1 5.87554 0.238519 0
99 1 15.583 8.2628 0
100 1 15.7441 30.0933 0
101 1 13.9124 10.1306 0
102 1 3.77124 27.9609 0
103 1 18.9893 18.9325 0
104 1 17.9249 13.2932 0
105 1 22.6174 18.5563 0
106 1 9.38168 27.7869 0
107 1 9.94761 24.3821 0
108 1 28.0567 15.4526 0
109 1 16.72 16.2761 0
110 1 17.478 16.8916 0
111 1 12.1118 2.10423 0
112 1 10.4033 12.559 0
113 1 1.09926 2.91652 0
114 1 4.8943 14.7836 0
115 1 21.2641 3.18023 0
116 1 11.3742 9.68253 0
117 1 13.7946 15.3948 0
118 1 23.1417 20.1857 0
119 1 24.7865 6.12239 0
120 1 28.8883 19.9186 0
121 1 23.5123 4.47365 0
122 1 16.3338 14.0432 0
123 1 20.4597 2.47608 0
124 1 2.00214 26.9303 0
125 1 13.2481 27.9931 0
126 1 18.4546 24.4973 0
127 1 12.0384 29.5817 0
128 1 4.87054 0.955324 0
129 1 22.7622 21.6988 0
130 1 8.95538 22.456 0
131 1 26.0186 0.897164 0
132 1 25.1625 15.742 0
133 1 0.923116 19.8968 0
134 1 16.7356 28.5238 0
135 1 2.24505 8.84679 0
136 1 1.76217 1.49487 0
137 1 21.3695 13.402 0
138 1 17.7421 11.8128 0
139 1 5.32751 17.3209 0
140 1 14.9083 23.9487 0
141 1 1.13348 16.736 0
142 1 30.005 10.6218 0
143 1 23.1678 1.65604 0
144 1 26.2256 4.76832 0
145 1 17.0654 15.4439 0
146 1 7.98444 11.1104 0
147 1 14.4178 2.3559 0
148 1 20.4386 22.8605 0
149 1 16.3137 26.639 0
150 1 9.7889 5.62916 0
151 1 14.7753 16.5363 0
152 1 6.51426 16.4598 0
153 1 8.65331 1.77999 0
154 1 13.6411 28.8154 0
155 1 12.3157 26.1442 0
156 1 3.40148 23.4413 0
157 1 26.069 14.5192 0
158 1 6.00012 3.94938 0
159 1 29.8032 20.9034 0
160 1 28.5851 2.00427 0
161 1 24.6652 19.5365 0
162 1 7.52138 18.0465 0
163 1 1.99381 18.1927 0
164 1 10.6224 2.67265 0
165 1 12.6208 17.7174 0
166 1 18.8894 7.94184 0
167 1 24.9539 11.0157 0
168 1 26.821 16.1415 0
169 1 29.3463 17.401 0
170 1 27.8156 12.6747 0
171 1 9.61343 29.6172 0
172 1 19.1969 5.16707 0
173 1 8.8074 9.02839 0
174 1 7.73239 15.112 0
175 1 19.4916 18.0536 0
176 1 25.3358 21.5993 0
177 1 12.3643 22.7343 0
178 1 10.4164 6.28202 0
179 1 25.842 11.6253 0
180 1 22.7144 8.52379 0
181 1 10.9954 4.57314 0
182 1 4.2408 3.51703 0
183 1 20.2029 5.90423 0
184 1 0.778077 9.78267 0
185 1 19.7863 0.13085 0
186 1 12.9721 21.8096 0
187 1 28.0279 10.7158 0
188 1 7.81724 27.7565 0
189 1 0.567426 4.22423 0
190 1 29.0251 25.8772 0
191 1 4.23907 8.75153 0
192 1 11.4499 12.0741 0
193 1 29.1768 19.1305 0
194 1 24.5209 26.7188 0
ITEM: TIMESTEP
3060
ITEM: NUMBER OF ATOMS
194
ITEM: BOX BOUNDS pp pp pp
0.0000000000000000e+00 3.0000000000000000e+01
0.0000000000000000e+00 3.0000000000000000e+01
-5.0000000000000000e-01 5.0000000000000000e-01
ITEM: ATOMS id type x y z
1 1 15.9706 10.2251 0
2 1 16.6397 29.9763 0
3 1 14.4047 11.1976 0
4 1 5.30926 3.447 0
5 1 26.5982 22.0824 0
6 1 12.7888 10.671 0
7 1 10.6384 18.3392 0
8 1 21.4259 26.158 0
9 1 13.7419 24.4983 0
10 1 26.6882 10.6595 0
11 1 24.635 4.95407 0
12 1 21.5396 11.2566 0
13 1 15.0483 26.9713 0
14 1 1.80328 24.2931 0
15 1 7.07126 2.28541 0
16 1 12.3869 18.773 0
17 1 9.73274 19.0927 0
18 1 13.9278 25.6576 0
19 1 26.9644 4.27854 0
20 1 7.22558 0.107166 0
21 1 14.0676 27.0587 0
22 1 20.8521 0.829587 0
23 1 24.554 2.79253 0
24 1 14.4762 1.29113 0
25 1 28.4791 9.63308 0
26 1 23.7474 7.64892 0
27 1 9.18381 16.8084 0
28 1 24.2957 23.2162 0
29 1 7.90618 4.72066 0
30 1 20.6136 24.8848 0
31 1 17.8342 29.0921 0
32 1 25.6729 2.40936 0
33 1 11.7301 20.3289 0
34 1 9.29098 14.3165 0
35 1 18.0503 25.2652 0
36 1 13.0655 13.4687 0
37 1 13.9534 17.7046 0
38 1 28.8522 7.69037 0
39 1 23.7499 10.9409 0
40 1 10.8765 8.6258 0
41 1 29.648 11.6761 0
42 1 19.3491 7.34014 0
43 1 8.46588 18.8363 0
44 1 5.1536 23.8016 0
45 1 8.48437 28.4522 0
46 1 5.0567 13.6541 0
47 1 13.4707 16.4565 0
48 1 0.0974578 2.96166 0
49 1 20.2988 29.1775 0
50 1 19.7998 27.881 0
51 1 20.6987 6.65075 0
52 1 28.5455 8.61146 0
53 1 19.1746 22.5983 0
54 1 7.78693 26.4627 0
55 1 25.188 28.4562 0
56 1 0.925866 15.1378 0
57 1 19.1705 2.74228 0
58 1 29.9445 6.36972 0
59 1 28.8536 6.64579 0
60 1 6.95571 27.2827 0
61 1 5.18707 5.23046 0
62 1 15.9967 6.55 0
63 1 17.8168 15.9226 0
64 1 7.97112 6.73759 0
65 1 20.5975 15.6906 0
66 1 10.0345 13.7251 0
67 1 5.93952 7.23843 0
68 1 3.46185 22.3864 0
69 1 20.3902 19.583 0
70 1 16.1007 25.1442 0
71 1 25.6782 16.7201 0
72 1 26.511 20.1531 0
73 1 24.39 9.78302 0
74 1 5.7109 11.4941 0
75 1 24.6821 14.9374 0
76 1 11.8843 6.79296 0
77 1 7.37587 22.7365 0
78 1 3.36729 18.5498 0
79 1 13.7495 3.87829 0
80 1 13.5661 1.25188 0
81 1 2.28979 12.5888 0
82 1 4.10584 7.58742 0
83 1 20.379 21.757 0
84 1 5.9146 6.29963 0
85 1 13.7799 12.3539 0
86 1 6.63646 28.2261 0
87 1 5.74663 16.095 0
88 1 26.1479 18.0714 0
89 1 21.839 16.2448 0
90 1 11.8494 2.64648 0
91 1 19.8245 8.53597 0
92 1 7.22932 19.4094 0
93 1 18.5292 14.9168 0
94 1 25.0201 17.6554 0
95 1 1.38787 27.8342 0
96 1 2.82931 25.4558 0
97 1 2.27347 7.40891 0
98 1 5.93892 0.410785 0
99 1 15.6517 8.11067 0
100 1 15.6788 0.326779 0
101 1 13.6644 9.9119 0
102 1 4.12623 27.7725 0
103 1 19.0536 19.0939 0
104 1 17.6992 12.9572 0
105 1 22.6277 18.8273 0
106 1 9.21429 27.7104 0
107 1 10.1506 24.8932 0
108 1 28.2584 15.3018 0
109 1 16.6706 16.4818 0
110 1 17.8599 16.8409 0
111 1 12.4533 1.90806 0
112 1 10.6637 12.6227 0
113 1 1.02257 2.73316 0
114 1 5.06211 15.3785 0
115 1 21.4624 2.93802 0
116 1 11.7378 9.61664 0
117 1 13.7926 15.3141 0
118 1 23.2127 19.9739 0
119 1 25.0464 5.94153 0
120 1 28.6593 20.0632 0
121 1 23.3871 4.33636 0
122 1 16.202 14.5508 0
123 1 20.3241 2.54447 0
124 1 2.11947 26.7765 0
125 1 13.2367 27.8698 0
126 1 18.6034 24.5461 0
127 1 12.1297 29.3586 0
128 1 5.04574 0.828858 0
129 1 22.428 21.4645 0
130 1 8.73024 21.679 0
131 1 26.5509 0.937898 0
132 1 25.1417 15.6793 0
133 1 0.915599 20.4183 0
134 1 16.6185 28.2602 0
135 1 2.36596 8.94137 0
136 1 1.74619 1.0424 0
137 1 21.569 13.8502 0
138 1 17.8861 12.1787 0
139 1 5.41543 17.5294 0
140 1 15.1334 24.1568 0
141 1 1.31801 17.2038 0
142 1 0.22854 10.4016 0
143 1 23.2559 1.54014 0
144 1 25.7824 4.49277 0
145 1 16.6495 15.3598 0
146 1 7.89522 11.0721 0
147 1 13.9273 2.21751 0
148 1 20.2403 22.6894 0
149 1 16.0286 26.5417 0
150 1 9.38257 4.81443 0
151 1 14.3562 16.6437 0
152 1 6.69481 16.5513 0
153 1 8.54859 1.55869 0
154 1 13.8112 28.8182 0
155 1 11.9552 25.6276 0
156 1 3.36712 23.6089 0
157 1 26.2854 14.5355 0
158 1 5.60015 4.35207 0
159 1 29.7658 20.5797 0
160 1 28.1141 2.37599 0
161 1 24.8388 19.7214 0
162 1 7.75867 18.0273 0
163 1 2.11373 18.0537 0
164 1 10.6703 2.60669 0
165 1 12.5208 17.8542 0
166 1 18.6218 8.01377 0
167 1 25.1423 10.9854 0
168 1 26.884 16.2917 0
169 1 29.372 17.6873 0
170 1 27.6736 13.021 0
171 1 10.0954 29.35 0
172 1 18.9209 5.29182 0
173 1 8.94149 9.0316 0
174 1 7.82439 15.3494 0
175 1 19.6111 18.2927 0
176 1 25.4295 21.3209 0
177 1 12.1205 22.8718 0
178 1 10.4991 5.9367 0
179 1 25.7384 11.686 0
180 1 22.842 8.77032 0
181 1 11.0988 4.98821 0
182 1 4.26237 3.76176 0
183 1 20.0552 5.83243 0
184 1 0.736767 9.50623 0
185 1 19.9523 -0.000744766 0
186 1 13.1864 21.4827 0
187 1 28.0406 10.848 0
188 1 8.20268 27.6337 0
189 1 0.725508 4.06375 0
190 1 28.9621 25.9774 0
191 1 4.14699 8.91574 0
192 1 11.6311 12.0196 0
193 1 29.3397 18.6507 0
194 1 24.754 26.7459 0
ITEM: TIMESTEP
3075
ITEM: NUMBER OF ATOMS
194
ITEM: BOX BOUNDS pp pp pp
0.0000000000000000e+00 3.0000000000000000e+01
0.0000000000000000e+00 3.0000000000000000e+01
-5.0000000000000000e-01 5.0000000000000000e-01
ITEM: ATOMS id type x y z
1 1 16.1446 10.1158 0
2 1 16.4986 29.9291 0
3 1 14.1828 11.313 0
4 1 5.22814 3.20224 0
5 1 26.5607 21.9711 0
6 1 12.8513 10.8797 0
7 1 10.8205 18.4866 0
8 1 21.256 26.1935 0
9 1 13.8113 24.5753 0
10 1 26.8649 10.6754 0
11 1 24.7644 4.88627 0
12 1 21.2222 11.432 0
13 1 14.9369 26.8224 0
14 1 2.1002 24.2422 0
15 1 7.02569 2.42001 0
16 1 12.2617 18.8287 0
17 1 9.38355 19.3111 0
18 1 14.1332 25.614 0
19 1 27.1157 4.25544 0
20 1 7.26374 0.533068 0
21 1 13.9002 27.1972 0
22 1 20.7617 0.356879 0
23 1 24.4868 2.89845 0
24 1 14.5437 1.51279 0
25 1 28.5561 9.52708 0
26 1 23.7794 7.513 0
27 1 9.02018 16.8456 0
28 1 24.538 23.3378 0
29 1 7.5923 4.53771 0
30 1 20.2716 24.5875 0
31 1 17.6844 28.69 0
32 1 25.6266 2.76089 0
33 1 12.0466 20.0829 0
34 1 9.45597 14.2538 0
35 1 18.0774 25.3689 0
36 1 12.976 13.2813 0
37 1 13.6736 17.8039 0
38 1 28.8245 7.7546 0
39 1 23.7998 11.138 0
40 1 10.5189 8.68672 0
41 1 29.1526 11.6563 0
42 1 18.9765 7.04304 0
43 1 8.45607 19.06 0
44 1 5.36635 24.0609 0
45 1 8.75491 28.4785 0
46 1 5.16003 13.4046 0
47 1 13.1861 16.6219 0
48 1 -0.0914084 2.59342 0
49 1 20.1646 28.8597 0
50 1 19.5031 27.7418 0
51 1 20.5985 6.61755 0
52 1 28.1424 8.65494 0
53 1 19.2467 22.6245 0
54 1 7.26214 26.6552 0
55 1 25.3652 28.3731 0
56 1 0.470236 14.8547 0
57 1 18.7105 2.84745 0
58 1 29.8836 5.90546 0
59 1 29.2609 6.91678 0
60 1 6.93211 27.4154 0
61 1 4.77079 6.12407 0
62 1 16.1023 6.66715 0
63 1 17.871 15.8803 0
64 1 7.73329 6.54883 0
65 1 20.4439 15.3894 0
66 1 10.0841 13.4853 0
67 1 6.29541 7.20892 0
68 1 3.20947 22.8379 0
69 1 19.9962 19.7835 0
70 1 16.832 25.7589 0
71 1 25.7549 17.1877 0
72 1 26.7826 20.5212 0
73 1 23.8293 9.37387 0
74 1 5.96285 11.6285 0
75 1 24.7461 14.5436 0
76 1 11.5369 6.6486 0
77 1 7.52594 22.3161 0
78 1 3.61985 18.435 0
79 1 13.5482 3.90429 0
80 1 13.5022 1.29419 0
81 1 2.31964 13.0429 0
82 1 4.0073 7.64136 0
83 1 20.4684 21.4552 0
84 1 6.27243 6.2145 0
85 1 13.572 12.4363 0
86 1 6.62148 28.2418 0
87 1 5.68919 16.571 0
88 1 26.6089 17.8455 0
89 1 22.3374 16.3535 0
90 1 12.0609 2.28717 0
91 1 19.7139 8.51882 0
92 1 7.01369 19.2364 0
93 1 18.5839 15.4233 0
94 1 24.7092 17.3099 0
95 1 1.30677 27.7651 0
96 1 3.18603 25.3276 0
97 1 2.72422 7.86449 0
98 1 6.08911 0.551304 0
99 1 15.7209 7.95692 0
100 1 15.5851 0.570542 0
101 1 13.4145 9.69836 0
102 1 4.48109 27.584 0
103 1 19.0809 19.3149 0
104 1 17.3306 13.1474 0
105 1 22.6365 19.0977 0
106 1 9.19984 27.6252 0
107 1 10.3545 25.4045 0
108 1 28.4587 15.1515 0
109 1 16.6094 16.7443 0
110 1 18.2431 16.9468 0
111 1 12.7961 1.66557 0
112 1 10.9231 12.69 0
113 1 1.04413 2.52497 0
114 1 5.05717 15.7793 0
115 1 21.6574 2.69461 0
116 1 12.1017 9.54994 0
117 1 13.7945 15.2292 0
118 1 23.2861 19.7637 0
119 1 25.311 5.76941 0
120 1 28.4339 20.2133 0
121 1 23.2651 4.20012 0
122 1 15.8062 14.601 0
123 1 20.216 2.60822 0
124 1 2.23555 26.6242 0
125 1 13.2008 27.7387 0
126 1 18.9084 24.3856 0
127 1 12.2219 29.1347 0
128 1 5.13909 0.733123 0
129 1 22.094 21.229 0
130 1 8.50426 20.9025 0
131 1 27.0827 0.980263 0
132 1 25.2302 15.8113 0
133 1 0.903774 20.9402 0
134 1 16.5032 27.9986 0
135 1 2.48693 9.03364 0
136 1 1.72989 0.590675 0
137 1 21.7683 14.2988 0
138 1 18.173 12.0192 0
139 1 5.50533 17.7339 0
140 1 15.3245 24.33 0
141 1 1.45655 17.6445 0
142 1 0.43809 10.2075 0
143 1 23.3443 1.42491 0
144 1 25.4294 4.10754 0
145 1 16.466 15.6459 0
146 1 7.80587 11.0338 0
147 1 13.4848 2.3768 0
148 1 20.1322 22.7419 0
149 1 15.7718 26.4295 0
150 1 8.97507 3.99989 0
151 1 14.2591 16.8159 0
152 1 6.94708 16.6971 0
153 1 8.4422 1.33763 0
154 1 13.9911 28.84 0
155 1 11.5948 25.1108 0
156 1 3.33283 23.779 0
157 1 26.5 14.554 0
158 1 5.64443 4.72978 0
159 1 29.7276 20.2527 0
160 1 27.6429 2.74783 0
161 1 25.0129 19.9075 0
162 1 7.99018 18.0042 0
163 1 2.2833 17.943 0
164 1 10.7201 2.54002 0
165 1 12.4486 17.8338 0
166 1 18.2868 8.13863 0
167 1 25.2382 10.8627 0
168 1 26.9447 16.4421 0
169 1 29.3908 17.4686 0
170 1 27.5314 13.3674 0
171 1 10.5769 29.0819 0
172 1 18.6499 5.41934 0
173 1 9.07605 9.03477 0
174 1 7.91632 15.5878 0
175 1 19.7715 18.4755 0
176 1 25.5272 21.042 0
177 1 11.8776 23.0081 0
178 1 10.4599 5.69692 0
179 1 25.7293 11.8508 0
180 1 22.9725 9.01491 0
181 1 11.3243 5.29891 0
182 1 4.28175 4.00948 0
183 1 19.8871 5.74049 0
184 1 0.708213 9.2059 0
185 1 19.9858 0.031241 0
186 1 13.3993 21.1565 0
187 1 28.051 10.9781 0
188 1 8.34397 27.1612 0
189 1 0.884129 3.8993 0
190 1 28.8992 26.0777 0
191 1 4.0538 9.07514 0
192 1 11.8116 11.9658 0
193 1 29.5113 18.673 0
194 1 24.9873 26.7739 0
ITEM: TIMESTEP
3090
ITEM: NUMBER OF ATOMS
194
ITEM: BOX BOUNDS pp pp pp
0.0000000000000000e+00 3.0000000000000000e+01
0.0000000000000000e+00 3.0000000000000000e+01
-5.0000000000000000e-01 5.0000000000000000e-01
ITEM: ATOMS id type x y z
1 1 16.3185 10.0065 0
2 1 16.3621 29.879 0
3 1 13.9544 11.431 0
4 1 5.14487 2.96134 0
5 1 26.5209 21.8544 0
6 1 12.9166 11.0868 0
7 1 11.005 18.6356 0
8 1 21.0857 26.2285 0
9 1 13.8804 24.6454 0
10 1 27.0436 10.6935 0
11 1 24.5 5.11022 0
12 1 20.9048 11.6075 0
13 1 14.709 26.7268 0
14 1 2.39925 24.1914 0
15 1 6.98052 2.55366 0
16 1 12.1188 18.96 0
17 1 9.19612 19.5786 0
18 1 14.3439 25.5813 0
19 1 27.2657 4.23009 0
20 1 7.30369 0.961721 0
21 1 13.906 27.1986 0
22 1 20.999 0.0328428 0
23 1 24.4233 3.00637 0
24 1 14.7472 1.73545 0
25 1 28.6655 9.53205 0
26 1 23.8108 7.37869 0
27 1 8.85373 16.8837 0
28 1 24.7805 23.4593 0
29 1 7.28017 4.35438 0
30 1 19.967 24.2939 0
31 1 17.5306 28.2866 0
32 1 25.6513 2.77309 0
33 1 12.3653 19.8425 0
34 1 9.54092 14.274 0
35 1 18.1017 25.474 0
36 1 12.8375 13.1568 0
37 1 13.39 17.8972 0
38 1 28.7523 7.93516 0
39 1 23.8531 11.3333 0
40 1 10.16 8.74867 0
41 1 28.6715 11.6472 0
42 1 18.6056 6.74603 0
43 1 8.28146 19.2331 0
44 1 5.57865 24.3201 0
45 1 8.98063 28.5945 0
46 1 5.26359 13.1548 0
47 1 12.7587 16.764 0
48 1 29.7133 2.22825 0
49 1 20.0324 28.527 0
50 1 19.2088 27.6071 0
51 1 20.4973 6.58555 0
52 1 27.7063 8.59183 0
53 1 19.0495 22.6178 0
54 1 6.93406 26.438 0
55 1 25.5421 28.2885 0
56 1 0.0140817 14.5716 0
57 1 18.2531 2.9522 0
58 1 29.8223 5.44332 0
59 1 29.7135 7.06789 0
60 1 6.84528 27.6216 0
61 1 4.36004 7.01438 0
62 1 16.2067 6.78823 0
63 1 17.5881 16.0711 0
64 1 7.49245 6.36061 0
65 1 20.2906 15.0879 0
66 1 10.2139 13.1615 0
67 1 6.65514 7.28451 0
68 1 2.92997 23.1608 0
69 1 19.715 20.0526 0
70 1 17.5612 26.3763 0
71 1 26.0616 17.52 0
72 1 27.0507 20.8929 0
73 1 23.8567 9.13482 0
74 1 6.21509 11.7632 0
75 1 24.8085 14.1459 0
76 1 11.1867 6.49857 0
77 1 7.67665 21.8949 0
78 1 3.8691 18.3186 0
79 1 13.3465 3.92739 0
80 1 13.8157 0.801188 0
81 1 2.34948 13.4971 0
82 1 3.9071 7.70026 0
83 1 20.5577 21.1541 0
84 1 6.62551 6.02031 0
85 1 13.4134 12.4489 0
86 1 6.4811 28.5955 0
87 1 5.80499 17.175 0
88 1 27.0848 17.623 0
89 1 22.8354 16.4618 0
90 1 12.032 2.1345 0
91 1 19.5999 8.49907 0
92 1 6.80237 19.0613 0
93 1 18.9688 15.6881 0
94 1 24.1566 17.0871 0
95 1 1.22753 27.6937 0
96 1 3.54026 25.1967 0
97 1 3.17719 8.32137 0
98 1 6.33827 0.665428 0
99 1 15.7914 7.79946 0
100 1 15.4846 0.818366 0
101 1 13.2164 9.49176 0
102 1 4.83614 27.3955 0
103 1 18.9875 19.4742 0
104 1 16.9441 13.3862 0
105 1 22.5188 19.2622 0
106 1 9.37651 27.5121 0
107 1 10.5623 25.9144 0
108 1 28.6586 15.0011 0
109 1 16.5547 17.0215 0
110 1 18.6258 17.0621 0
111 1 12.8102 1.476 0
112 1 11.1846 12.757 0
113 1 1.07265 2.31881 0
114 1 4.89641 15.9996 0
115 1 21.8494 2.4508 0
116 1 12.4123 9.48253 0
117 1 13.7961 15.1479 0
118 1 23.4866 19.6603 0
119 1 25.5846 5.60907 0
120 1 28.2119 20.3635 0
121 1 23.1452 4.06376 0
122 1 15.2998 14.4621 0
123 1 20.1086 2.67254 0
124 1 2.35084 26.4729 0
125 1 12.9787 27.754 0
126 1 19.1777 24.2179 0
127 1 12.3141 28.9095 0
128 1 5.13421 0.663228 0
129 1 21.7586 20.9931 0
130 1 8.27832 20.1255 0
131 1 27.6146 1.02333 0
132 1 25.3231 15.9513 0
133 1 0.888703 21.4606 0
134 1 16.3908 27.7383 0
135 1 2.60772 9.12693 0
136 1 1.71346 0.139285 0
137 1 21.9668 14.7483 0
138 1 18.4777 11.8112 0
139 1 5.58354 17.9909 0
140 1 15.513 24.5051 0
141 1 1.37344 17.9892 0
142 1 0.639527 10.0362 0
143 1 23.433 1.31035 0
144 1 25.3859 3.75564 0
145 1 16.3948 16.1058 0
146 1 7.71608 10.9954 0
147 1 13.0969 2.8118 0
148 1 20.2946 22.8273 0
149 1 15.6477 26.2537 0
150 1 8.56541 3.18623 0
151 1 14.3042 17.0173 0
152 1 7.19675 16.8418 0
153 1 8.33268 1.11558 0
154 1 14.1678 28.8572 0
155 1 11.2307 24.5949 0
156 1 3.3255 24.0818 0
157 1 26.7151 14.572 0
158 1 5.68693 5.10798 0
159 1 29.6877 19.9253 0
160 1 27.1706 3.12129 0
161 1 25.1755 20.0756 0
162 1 8.22178 17.9818 0
163 1 2.67771 17.9298 0
164 1 10.7742 2.47263 0
165 1 12.3938 17.7286 0
166 1 17.9555 8.26213 0
167 1 25.3188 10.7202 0
168 1 27.0009 16.5963 0
169 1 29.403 16.9892 0
170 1 27.388 13.7156 0
171 1 11.0593 28.8134 0
172 1 18.3845 5.55 0
173 1 9.21279 9.0375 0
174 1 8.0075 15.8295 0
175 1 19.94 18.6524 0
176 1 25.6424 20.7823 0
177 1 11.6348 23.1448 0
178 1 10.19 5.62822 0
179 1 25.7347 12.034 0
180 1 22.5157 9.0895 0
181 1 11.783 5.4441 0
182 1 4.30614 4.25585 0
183 1 19.7125 5.64809 0
184 1 0.687584 8.88291 0
185 1 19.6869 29.9253 0
186 1 13.6112 20.8298 0
187 1 28.0436 11.0933 0
188 1 8.33145 26.6255 0
189 1 1.04207 3.72958 0
190 1 28.8362 26.1779 0
191 1 3.95748 9.23024 0
192 1 11.9936 11.9126 0
193 1 29.6898 18.9582 0
194 1 25.2209 26.8034 0
ITEM: TIMESTEP
3105
ITEM: NUMBER OF ATOMS
194
ITEM: BOX BOUNDS pp pp pp
0.0000000000000000e+00 3.0000000000000000e+01
0.0000000000000000e+00 3.0000000000000000e+01
-5.0000000000000000e-01 5.0000000000000000e-01
ITEM: ATOMS id type x y z
1 1 16.4924 9.89685 0
2 1 16.2225 29.8316 0
3 1 13.7798 11.5471 0
4 1 5.06087 2.72239 0
5 1 26.4664 21.7461 0
6 1 12.9365 11.2801 0
7 1 11.1488 18.7734 0
8 1 20.9151 26.2634 0
9 1 13.9427 24.6989 0
10 1 27.0697 10.6467 0
11 1 24.2361 5.33019 0
12 1 20.5873 11.7829 0
13 1 14.5748 26.5629 0
14 1 2.50769 24.1998 0
15 1 6.93702 2.68617 0
16 1 11.971 18.9623 0
17 1 9.16449 19.8902 0
18 1 14.568 25.5682 0
19 1 27.421 4.21692 0
20 1 7.34774 1.40964 0
21 1 13.8287 27.2526 0
22 1 21.2518 29.7136 0
23 1 24.3662 3.11765 0
24 1 14.948 1.95659 0
25 1 28.7734 9.5363 0
26 1 23.8422 7.24546 0
27 1 8.68136 16.9226 0
28 1 25.023 23.5807 0
29 1 6.96774 4.17108 0
30 1 20.2458 24.0538 0
31 1 17.373 27.8799 0
32 1 25.8236 2.11412 0
33 1 12.7343 19.7378 0
34 1 9.62716 14.2919 0
35 1 18.132 25.5717 0
36 1 12.5789 13.1773 0
37 1 13.1631 17.9976 0
38 1 28.6767 8.12111 0
39 1 23.9085 11.5277 0
40 1 10.0377 8.7268 0
41 1 28.4825 11.9058 0
42 1 18.2412 6.48078 0
43 1 7.94101 18.6736 0
44 1 5.79061 24.5794 0
45 1 9.20428 28.7136 0
46 1 5.36794 12.904 0
47 1 12.3617 16.8039 0
48 1 29.5223 1.86357 0
49 1 19.8964 28.1943 0
50 1 18.9193 27.4781 0
51 1 20.392 6.55002 0
52 1 27.2754 8.52712 0
53 1 18.8479 22.6125 0
54 1 6.61802 26.1956 0
55 1 25.7184 28.2015 0
56 1 29.5589 14.2872 0
57 1 17.7963 3.05683 0
58 1 29.7608 4.98292 0
59 1 30.1664 7.2165 0
60 1 6.78438 27.7625 0
61 1 4.40626 7.26467 0
62 1 16.3241 6.88509 0
63 1 17.2971 16.2702 0
64 1 7.55773 6.32807 0
65 1 20.1359 14.7876 0
66 1 10.3306 12.8447 0
67 1 7.01765 7.35399 0
68 1 2.63862 23.34 0
69 1 19.6209 20.4507 0
70 1 18.2819 27 0
71 1 26.3445 17.8411 0
72 1 27.3289 21.2523 0
73 1 24.1062 8.95212 0
74 1 6.4677 11.8984 0
75 1 24.8717 13.7489 0
76 1 10.8352 6.3413 0
77 1 7.82764 21.4728 0
78 1 4.11549 18.2006 0
79 1 13.1565 3.97691 0
80 1 14.1474 0.302535 0
81 1 2.37933 13.9512 0
82 1 3.64082 7.97494 0
83 1 20.615 20.8556 0
84 1 6.6681 5.67288 0
85 1 13.3598 12.3269 0
86 1 6.30652 29.0402 0
87 1 6.01355 17.4299 0
88 1 27.6078 17.4732 0
89 1 23.1035 16.4152 0
90 1 11.8266 2.13473 0
91 1 19.4844 8.47844 0
92 1 6.59353 18.8844 0
93 1 19.3613 15.9511 0
94 1 23.8358 17.0178 0
95 1 1.14929 27.6213 0
96 1 3.92539 25.1385 0
97 1 3.33703 8.94824 0
98 1 6.55183 0.764753 0
99 1 15.8496 7.66652 0
100 1 15.3855 1.06206 0
101 1 13.5603 9.297 0
102 1 5.19204 27.2072 0
103 1 18.7131 19.5011 0
104 1 16.5575 13.6251 0
105 1 22.3317 19.3817 0
106 1 9.55411 27.3936 0
107 1 10.7714 26.4225 0
108 1 28.8566 14.8518 0
109 1 16.5274 17.4321 0
110 1 19.007 17.1719 0
111 1 12.9866 1.14659 0
112 1 11.4624 12.8169 0
113 1 1.09704 2.11587 0
114 1 4.73747 16.2224 0
115 1 22.0409 2.20706 0
116 1 12.1808 9.40664 0
117 1 13.7989 15.0666 0
118 1 23.7574 19.6029 0
119 1 25.858 5.44921 0
120 1 27.9905 20.5133 0
121 1 23.0274 3.92691 0
122 1 14.7926 14.3244 0
123 1 20.0015 2.73687 0
124 1 2.46588 26.3216 0
125 1 12.7103 27.8032 0
126 1 18.8632 23.9928 0
127 1 12.4135 28.6852 0
128 1 5.1292 0.594021 0
129 1 21.4527 20.7528 0
130 1 8.05471 20.0397 0
131 1 28.1467 1.06677 0
132 1 25.4165 16.0927 0
133 1 0.873117 21.9805 0
134 1 16.2824 27.4784 0
135 1 2.59232 9.32705 0
136 1 1.69696 29.688 0
137 1 22.1646 15.1986 0
138 1 18.7823 11.6035 0
139 1 5.57163 18.5954 0
140 1 15.6986 24.6828 0
141 1 1.28111 18.3315 0
142 1 0.840408 9.86409 0
143 1 23.5214 1.19649 0
144 1 25.189 4.07559 0
145 1 16.3002 16.4296 0
146 1 7.62518 10.9577 0
147 1 12.6937 3.21562 0
148 1 20.4612 22.9152 0
149 1 15.5586 26.0588 0
150 1 8.15325 2.3723 0
151 1 14.3433 17.2213 0
152 1 7.44868 16.9857 0
153 1 8.2544 0.891125 0
154 1 14.3426 28.8724 0
155 1 10.8651 24.0798 0
156 1 3.48937 24.3972 0
157 1 26.8453 14.7112 0
158 1 5.73009 5.48732 0
159 1 29.6101 19.9513 0
160 1 26.6899 3.48172 0
161 1 25.1424 19.9569 0
162 1 8.45732 17.952 0
163 1 3.08477 17.9206 0
164 1 10.8321 2.40426 0
165 1 12.255 17.7207 0
166 1 17.626 8.38425 0
167 1 25.3999 10.5819 0
168 1 27.0319 16.6869 0
169 1 29.4153 16.5103 0
170 1 27.3294 13.9436 0
171 1 11.5357 28.5435 0
172 1 18.1187 5.64979 0
173 1 9.11311 9.12413 0
174 1 8.09811 16.0776 0
175 1 20.1046 18.8353 0
176 1 25.9586 20.8128 0
177 1 11.3917 23.283 0
178 1 9.92489 5.56253 0
179 1 25.7392 12.2131 0
180 1 21.8371 9.10697 0
181 1 12.2383 5.5934 0
182 1 4.33335 4.50114 0
183 1 19.535 5.56054 0
184 1 0.667189 8.56025 0
185 1 19.3727 29.8104 0
186 1 13.8215 20.5017 0
187 1 27.8961 11.0043 0
188 1 8.3163 26.0916 0
189 1 1.19962 3.55613 0
190 1 28.7732 26.2782 0
191 1 3.99935 9.5326 0
192 1 12.1777 11.8643 0
193 1 29.9043 18.8902 0
194 1 25.4551 26.8354 0
ITEM: TIMESTEP
3120
ITEM: NUMBER OF ATOMS
194
ITEM: BOX BOUNDS pp pp pp
0.0000000000000000e+00 3.0000000000000000e+01
0.0000000000000000e+00 3.0000000000000000e+01
-5.0000000000000000e-01 5.0000000000000000e-01
ITEM: ATOMS id type x y z
1 1 16.6667 9.78644 0
2 1 16.0808 29.7862 0
3 1 13.9345 11.542 0
4 1 4.97739 2.48373 0
5 1 26.3973 21.7294 0
6 1 12.9003 11.2666 0
7 1 10.9485 18.8293 0
8 1 20.7442 26.2984 0
9 1 13.9996 24.743 0
10 1 26.7363 10.4455 0
11 1 23.9748 5.54875 0
12 1 20.2688 11.9581 0
13 1 14.4988 26.4189 0
14 1 2.45427 24.4731 0
15 1 6.89848 2.8158 0
16 1 12.1518 19.002 0
17 1 9.13746 20.1993 0
18 1 14.7548 25.4665 0
19 1 27.5889 4.22465 0
20 1 6.93859 1.63074 0
21 1 13.6806 27.3612 0
22 1 21.5036 29.3941 0
23 1 24.312 3.23325 0
24 1 15.1264 2.2294 0
25 1 28.8798 9.53766 0
26 1 23.8738 7.11275 0
27 1 8.57704 16.9995 0
28 1 25.2656 23.7019 0
29 1 6.65452 3.98774 0
30 1 20.5557 23.8433 0
31 1 17.2166 27.4694 0
32 1 25.9955 1.45775 0
33 1 13.1268 19.6703 0
34 1 9.71429 14.3081 0
35 1 18.1631 25.6721 0
36 1 12.4067 13.243 0
37 1 13.0398 18.1265 0
38 1 28.5998 8.31093 0
39 1 23.9652 11.7219 0
40 1 10.1356 8.62248 0
41 1 28.3398 12.2131 0
42 1 17.9309 6.57919 0
43 1 7.48278 18.0383 0
44 1 6.00239 24.8401 0
45 1 9.4291 28.8289 0
46 1 5.4743 12.6513 0
47 1 12.0015 16.6449 0
48 1 29.3438 1.50553 0
49 1 20.2195 28.0649 0
50 1 19.0613 27.8169 0
51 1 20.2831 6.51099 0
52 1 26.8482 8.46232 0
53 1 18.6485 22.6115 0
54 1 6.30195 25.955 0
55 1 25.8941 28.1107 0
56 1 29.2793 13.8205 0
57 1 17.3398 3.16146 0
58 1 29.6996 4.52249 0
59 1 0.61835 7.36291 0
60 1 6.72102 27.9037 0
61 1 4.55529 7.38177 0
62 1 16.5245 6.84806 0
63 1 17.0611 16.4617 0
64 1 7.78006 6.38386 0
65 1 19.9795 14.49 0
66 1 10.4458 12.5304 0
67 1 7.38138 7.41912 0
68 1 2.39962 23.2447 0
69 1 19.4718 20.8448 0
70 1 18.1078 26.9536 0
71 1 26.6321 18.1572 0
72 1 27.6069 21.6355 0
73 1 24.3554 8.76864 0
74 1 6.72033 12.0335 0
75 1 24.9358 13.351 0
76 1 10.4827 6.18034 0
77 1 7.97959 21.0512 0
78 1 4.38954 18.0888 0
79 1 13.0673 4.19522 0
80 1 14.4796 29.8073 0
81 1 2.40918 14.4053 0
82 1 3.46727 8.04505 0
83 1 20.3745 20.603 0
84 1 6.64777 5.2393 0
85 1 13.1992 12.387 0
86 1 6.13285 29.4831 0
87 1 6.23049 17.666 0
88 1 28.1719 17.4114 0
89 1 22.882 16.072 0
90 1 11.6996 2.11668 0
91 1 19.3683 8.45742 0
92 1 6.42741 18.7024 0
93 1 19.754 16.2163 0
94 1 24.1525 17.3898 0
95 1 1.07164 27.5486 0
96 1 4.47154 25.3841 0
97 1 3.36488 9.17904 0
98 1 6.72652 0.827315 0
99 1 15.8264 7.6679 0
100 1 15.3071 1.24928 0
101 1 13.9267 9.10262 0
102 1 5.55025 27.0187 0
103 1 18.4408 19.527 0
104 1 16.1704 13.8642 0
105 1 22.1462 19.5035 0
106 1 9.73188 27.2771 0
107 1 10.9788 26.932 0
108 1 28.878 14.8857 0
109 1 16.5133 17.8951 0
110 1 19.3891 17.2771 0
111 1 13.1642 0.817341 0
112 1 11.6511 12.8301 0
113 1 1.11976 1.91581 0
114 1 4.5791 16.4465 0
115 1 22.2331 1.96329 0
116 1 11.9268 9.33137 0
117 1 13.8004 14.9887 0
118 1 24.0284 19.5457 0
119 1 26.1289 5.28641 0
120 1 27.8026 20.613 0
121 1 22.9117 3.7892 0
122 1 14.2872 14.1834 0
123 1 19.8946 2.80116 0
124 1 2.58099 26.1699 0
125 1 12.4883 27.6434 0
126 1 18.5142 23.7615 0
127 1 12.7419 28.7215 0
128 1 5.12814 0.524992 0
129 1 21.5008 20.4673 0
130 1 7.83077 20.1598 0
131 1 28.6681 1.10395 0
132 1 25.5106 16.235 0
133 1 0.857674 22.5004 0
134 1 16.1752 27.2176 0
135 1 2.0627 9.81771 0
136 1 1.68038 29.2365 0
137 1 22.2148 15.5036 0
138 1 19.0879 11.396 0
139 1 5.51344 19.2213 0
140 1 15.88 24.8663 0
141 1 1.18725 18.6745 0
142 1 1.04173 9.68704 0
143 1 23.6093 1.08341 0
144 1 24.9906 4.3936 0
145 1 16.138 16.7088 0
146 1 7.53234 10.9216 0
147 1 12.1864 3.44734 0
148 1 20.629 22.9757 0
149 1 15.5255 25.8873 0
150 1 8.19509 1.83166 0
151 1 14.3791 17.4271 0
152 1 7.68744 17.141 0
153 1 8.20465 0.661464 0
154 1 14.5162 28.8868 0
155 1 10.3438 23.7268 0
156 1 3.6017 24.4193 0
157 1 26.7944 15.1205 0
158 1 5.67775 5.86507 0
159 1 29.5012 20.203 0
160 1 26.1931 3.82137 0
161 1 25.0757 19.7966 0
162 1 8.79915 17.8484 0
163 1 3.46594 17.9056 0
164 1 10.8167 2.35607 0
165 1 11.9745 17.8906 0
166 1 17.2962 8.50602 0
167 1 25.4821 10.4454 0
168 1 27.0159 16.6931 0
169 1 29.4267 16.0303 0
170 1 27.4528 13.9026 0
171 1 11.7422 28.2193 0
172 1 17.8031 5.38566 0
173 1 8.79335 9.29335 0
174 1 8.13224 16.2232 0
175 1 20.2669 19.0208 0
176 1 26.2877 20.8184 0
177 1 11.3043 23.2593 0
178 1 9.66277 5.49929 0
179 1 25.7425 12.3914 0
180 1 21.1587 9.12438 0
181 1 12.692 5.74326 0
182 1 4.36183 4.74655 0
183 1 19.3558 5.47786 0
184 1 0.646849 8.24504 0
185 1 19.0597 29.6941 0
186 1 14.0287 20.1715 0
187 1 28.0606 11.0197 0
188 1 8.30048 25.5587 0
189 1 1.35661 3.37964 0
190 1 28.7102 26.3784 0
191 1 4.49045 10.2782 0
192 1 12.1989 11.9619 0
193 1 0.151499 18.5959 0
194 1 25.69 26.8711 0
ITEM: TIMESTEP
3135
ITEM: NUMBER OF ATOMS
194
ITEM: BOX BOUNDS pp pp pp
0.0000000000000000e+00 3.0000000000000000e+01
0.0000000000000000e+00 3.0000000000000000e+01
-5.0000000000000000e-01 5.0000000000000000e-01
ITEM: ATOMS id type x y z
1 1 16.8421 9.67312 0
2 1 15.9355 29.7416 0
3 1 14.1436 11.5091 0
4 1 4.89507 2.2447 0
5 1 26.3631 21.8833 0
6 1 12.9725 11.1235 0
7 1 10.7225 18.8767 0
8 1 20.573 26.3341 0
9 1 14.006 24.7482 0
10 1 26.4145 10.2433 0
11 1 23.7151 5.76745 0
12 1 19.9472 12.132 0
13 1 14.4077 26.3503 0
14 1 2.39829 24.7615 0
15 1 6.86188 2.94055 0
16 1 12.3657 19.0474 0
17 1 9.10456 20.5092 0
18 1 14.7854 25.2069 0
19 1 27.7538 4.23213 0
20 1 6.16374 1.92061 0
21 1 13.5297 27.4701 0
22 1 21.7544 29.0737 0
23 1 24.2581 3.35357 0
24 1 15.2909 2.55678 0
25 1 28.9847 9.53521 0
26 1 23.9057 6.97882 0
27 1 8.78773 17.0083 0
28 1 25.5083 23.8231 0
29 1 6.34026 3.80677 0
30 1 20.8437 23.8974 0
31 1 17.0128 27.0904 0
32 1 26.1672 0.801654 0
33 1 13.4432 19.5648 0
34 1 9.80168 14.3238 0
35 1 18.1939 25.7766 0
36 1 12.5902 13.4793 0
37 1 12.9328 18.2604 0
38 1 28.5235 8.50551 0
39 1 24.0233 11.9166 0
40 1 10.2319 8.51935 0
41 1 28.1967 12.5182 0
42 1 17.6281 6.71717 0
43 1 7.1203 17.7255 0
44 1 6.21658 24.9682 0
45 1 9.65437 28.9423 0
46 1 5.58398 12.3969 0
47 1 11.6423 16.4848 0
48 1 29.7987 1.52484 0
49 1 21.1554 28.1949 0
50 1 18.704 27.982 0
51 1 20.1713 6.46926 0
52 1 26.4221 8.39802 0
53 1 18.451 22.6071 0
54 1 5.97932 25.8504 0
55 1 26.0689 28.015 0
56 1 29.0537 13.282 0
57 1 16.8833 3.26621 0
58 1 29.6383 4.06181 0
59 1 1.09304 7.18993 0
60 1 6.65488 28.044 0
61 1 4.70131 7.50045 0
62 1 16.7445 6.78278 0
63 1 16.9194 16.6314 0
64 1 8.00156 6.43604 0
65 1 19.823 14.1936 0
66 1 10.5648 12.2169 0
67 1 7.74441 7.48598 0
68 1 2.16194 23.1359 0
69 1 19.1891 21.2537 0
70 1 17.8819 26.7893 0
71 1 26.9215 18.4704 0
72 1 27.8662 22.0543 0
73 1 24.6046 8.58442 0
74 1 6.97188 12.1671 0
75 1 24.9858 12.9611 0
76 1 10.1451 6.0315 0
77 1 8.2164 20.905 0
78 1 4.77579 17.9979 0
79 1 12.9926 4.43472 0
80 1 14.8164 29.6507 0
81 1 2.43902 14.8595 0
82 1 3.29753 8.11264 0
83 1 20.2222 20.3375 0
84 1 6.66565 4.79874 0
85 1 13.0222 12.4878 0
86 1 5.95966 29.929 0
87 1 6.16945 17.735 0
88 1 28.7337 17.3491 0
89 1 23.2768 16.3177 0
90 1 11.7481 2.05425 0
91 1 19.2525 8.43638 0
92 1 6.31327 18.6728 0
93 1 20.1489 16.4755 0
94 1 24.4691 17.7608 0
95 1 0.994618 27.4766 0
96 1 5.02529 25.6383 0
97 1 3.39752 9.4076 0
98 1 6.82159 0.57058 0
99 1 15.7839 7.69857 0
100 1 15.2423 1.37917 0
101 1 14.2925 8.90842 0
102 1 5.91235 26.829 0
103 1 18.1702 19.5538 0
104 1 15.7826 14.1033 0
105 1 22.0152 19.5434 0
106 1 9.91387 27.1614 0
107 1 11.1726 27.4318 0
108 1 28.83 14.9757 0
109 1 16.4987 18.3527 0
110 1 19.7694 17.3874 0
111 1 13.3429 0.487227 0
112 1 11.4299 12.7315 0
113 1 1.14178 1.71825 0
114 1 4.42043 16.6732 0
115 1 22.4268 1.71918 0
116 1 11.6729 9.25603 0
117 1 13.752 15.0105 0
118 1 24.2215 19.471 0
119 1 26.3976 5.11835 0
120 1 27.6289 20.6755 0
121 1 22.7986 3.65048 0
122 1 13.8312 13.942 0
123 1 19.7877 2.86543 0
124 1 2.69619 26.0165 0
125 1 12.4148 27.2656 0
126 1 18.1647 23.5338 0
127 1 13.1501 28.8817 0
128 1 5.13051 0.45527 0
129 1 21.5384 20.2579 0
130 1 7.52753 20.0025 0
131 1 28.5573 0.764028 0
132 1 25.6072 16.3776 0
133 1 0.843567 23.0208 0
134 1 16.0525 26.9507 0
135 1 1.66609 10.3855 0
136 1 1.66344 28.7841 0
137 1 21.6493 15.2204 0
138 1 19.3966 11.1899 0
139 1 5.41468 19.8525 0
140 1 16.0674 25.0245 0
141 1 1.12619 19.0289 0
142 1 1.10359 9.4323 0
143 1 23.6961 0.971382 0
144 1 24.7939 4.70959 0
145 1 15.8812 17.0155 0
146 1 7.43743 10.8883 0
147 1 11.6623 3.65596 0
148 1 20.8172 22.7714 0
149 1 15.7078 25.8696 0
150 1 8.68061 1.53888 0
151 1 14.4133 17.6338 0
152 1 7.82598 17.0657 0
153 1 8.15069 0.437356 0
154 1 14.6858 28.5641 0
155 1 9.71486 23.467 0
156 1 3.70902 24.4328 0
157 1 26.7427 15.533 0
158 1 5.58814 6.24767 0
159 1 29.3919 20.4535 0
160 1 25.695 4.16602 0
161 1 25.0879 19.655 0
162 1 9.21884 17.9916 0
163 1 3.73772 17.8683 0
164 1 10.6281 2.35565 0
165 1 11.6756 18.0631 0
166 1 16.9641 8.62888 0
167 1 25.5522 10.31 0
168 1 26.9986 16.6996 0
169 1 29.4505 15.565 0
170 1 27.5784 13.8611 0
171 1 11.7367 27.9981 0
172 1 17.4838 5.08229 0
173 1 8.47544 9.46168 0
174 1 8.04255 16.107 0
175 1 20.4292 19.2094 0
176 1 26.5855 20.6531 0
177 1 11.3245 23.1424 0
178 1 9.38553 5.42412 0
179 1 25.7592 12.5603 0
180 1 20.4797 9.1415 0
181 1 13.1457 5.89129 0
182 1 4.39141 4.99252 0
183 1 19.1765 5.39853 0
184 1 0.604092 8.25275 0
185 1 18.747 29.5767 0
186 1 14.3078 19.8743 0
187 1 28.2267 11.0378 0
188 1 8.28431 25.0259 0
189 1 1.51283 3.20063 0
190 1 28.6472 26.4786 0
191 1 4.98161 11.0238 0
192 1 12.1246 12.1173 0
193 1 0.365161 18.2917 0
194 1 25.9256 26.9117 0
ITEM: TIMESTEP
3150
ITEM: NUMBER OF ATOMS
194
ITEM: BOX BOUNDS pp pp pp
0.0000000000000000e+00 3.0000000000000000e+01
0.0000000000000000e+00 3.0000000000000000e+01
-5.0000000000000000e-01 5.0000000000000000e-01
ITEM: ATOMS id type x y z
1 1 17.0224 9.60126 0
2 1 15.9144 29.7055 0
3 1 14.346 11.4771 0
4 1 4.68652 1.99325 0
5 1 26.333 22.0412 0
6 1 13.0466 10.9886 0
7 1 10.5008 18.9203 0
8 1 20.4018 26.3702 0
9 1 13.854 24.6544 0
10 1 26.412 10.0116 0
11 1 23.4564 5.98474 0
12 1 19.6261 12.3069 0
13 1 14.3195 26.281 0
14 1 2.34527 25.0468 0
15 1 6.84443 3.03209 0
16 1 12.5167 19.1931 0
17 1 9.27421 20.7484 0
18 1 14.9634 25.0389 0
19 1 27.9175 4.24041 0
20 1 5.51997 2.24914 0
21 1 13.3784 27.5802 0
22 1 22.147 29.0769 0
23 1 24.2039 3.47799 0
24 1 15.4562 2.88482 0
25 1 29.0902 9.53414 0
26 1 23.9389 6.8451 0
27 1 9.14676 16.9675 0
28 1 25.7512 23.9439 0
29 1 5.99325 3.63361 0
30 1 21.1298 23.9947 0
31 1 16.7646 26.7841 0
32 1 26.3389 0.145549 0
33 1 13.5905 19.389 0
34 1 9.88925 14.3391 0
35 1 18.2453 25.8332 0
36 1 12.6587 13.7095 0
37 1 12.8865 18.2947 0
38 1 28.4465 8.69962 0
39 1 24.0825 12.1123 0
40 1 10.3293 8.41728 0
41 1 27.9692 12.7955 0
42 1 17.7157 6.84158 0
43 1 7.26031 17.5983 0
44 1 6.46361 24.7823 0
45 1 9.87992 29.0547 0
46 1 5.80317 12.3495 0
47 1 11.2832 16.327 0
48 1 0.314581 1.58557 0
49 1 21.949 28.0007 0
50 1 18.3448 28.1461 0
51 1 20.0574 6.42553 0
52 1 25.995 8.33482 0
53 1 18.2837 22.5207 0
54 1 6.18287 25.9534 0
55 1 26.2444 27.926 0
56 1 28.9091 12.7733 0
57 1 16.4255 3.37086 0
58 1 29.5768 3.60101 0
59 1 1.58323 6.9202 0
60 1 6.58675 28.1818 0
61 1 4.84645 7.61819 0
62 1 16.5712 6.73277 0
63 1 16.7884 16.7987 0
64 1 8.22562 6.48003 0
65 1 19.6668 13.8971 0
66 1 10.6461 11.8701 0
67 1 8.10583 7.56011 0
68 1 1.92058 23.0289 0
69 1 18.904 21.6639 0
70 1 17.7932 26.6171 0
71 1 27.211 18.7829 0
72 1 28.122 22.4693 0
73 1 24.8549 8.39966 0
74 1 7.22121 12.2973 0
75 1 24.8139 12.6768 0
76 1 9.86438 5.92827 0
77 1 8.29071 20.9332 0
78 1 4.95299 18.0405 0
79 1 12.9161 4.67565 0
80 1 15.0321 29.6554 0
81 1 2.46888 15.3136 0
82 1 3.13022 8.18385 0
83 1 20.0631 20.0978 0
84 1 6.69335 4.38007 0
85 1 12.9315 12.6168 0
86 1 5.94315 0.296402 0
87 1 5.69961 17.4113 0
88 1 29.2952 17.2864 0
89 1 23.6721 16.5639 0
90 1 11.8065 1.99083 0
91 1 19.1387 8.41614 0
92 1 6.21083 18.8993 0
93 1 20.5697 16.6752 0
94 1 24.7857 18.1325 0
95 1 0.919217 27.4071 0
96 1 4.98219 25.7268 0
97 1 3.42946 9.63177 0
98 1 6.93289 0.294491 0
99 1 15.7465 7.72823 0
100 1 15.1779 1.50727 0
101 1 14.6589 8.71381 0
102 1 6.3135 26.9135 0
103 1 17.8998 19.5809 0
104 1 15.3942 14.3425 0
105 1 22.0996 19.2582 0
106 1 10.0989 27.0466 0
107 1 10.9372 27.5154 0
108 1 28.5623 14.865 0
109 1 16.4834 18.8068 0
110 1 20.1242 17.5572 0
111 1 13.5227 0.154597 0
112 1 11.1269 12.782 0
113 1 1.1714 1.52246 0
114 1 4.26231 16.9054 0
115 1 22.6233 1.47409 0
116 1 11.4176 9.17996 0
117 1 13.6903 15.0736 0
118 1 24.1629 19.3403 0
119 1 26.6635 4.94513 0
120 1 27.6155 20.7692 0
121 1 22.6883 3.51101 0
122 1 13.5049 13.668 0
123 1 19.6808 2.9297 0
124 1 2.81258 25.8628 0
125 1 12.4331 26.8037 0
126 1 17.7864 23.3861 0
127 1 13.5593 29.0387 0
128 1 4.96359 0.46119 0
129 1 21.3522 20.372 0
130 1 7.18323 19.7404 0
131 1 28.3784 0.383321 0
132 1 25.7094 16.5197 0
133 1 0.833787 23.5415 0
134 1 15.8302 26.7676 0
135 1 1.37266 11.0237 0
136 1 1.64502 28.329 0
137 1 21.0833 14.9374 0
138 1 19.7048 10.9829 0
139 1 5.31783 20.4807 0
140 1 16.31 25.0433 0
141 1 1.09189 19.3973 0
142 1 1.06429 9.10826 0
143 1 23.7803 0.860917 0
144 1 24.5471 5.05918 0
145 1 15.6128 17.3291 0
146 1 7.34151 10.8583 0
147 1 11.1395 3.86308 0
148 1 21.007 22.5237 0
149 1 15.8292 25.9046 0
150 1 9.16369 1.24208 0
151 1 14.4478 17.841 0
152 1 7.93262 16.8978 0
153 1 8.09415 0.217712 0
154 1 14.8473 28.0723 0
155 1 9.08752 23.207 0
156 1 3.81247 24.4485 0
157 1 26.6813 15.9243 0
158 1 5.49741 6.63061 0
159 1 29.2817 20.704 0
160 1 25.2472 4.47953 0
161 1 25.3527 19.568 0
162 1 9.65494 18.1788 0
163 1 3.97458 17.8239 0
164 1 10.4303 2.35878 0
165 1 11.3799 18.2403 0
166 1 16.6252 8.70743 0
167 1 25.3031 10.2034 0
168 1 26.9862 16.7291 0
169 1 29.6927 15.2982 0
170 1 27.7073 13.8181 0
171 1 12.0709 28.2797 0
172 1 17.1654 4.78094 0
173 1 8.15731 9.63036 0
174 1 7.95861 15.9131 0
175 1 20.6075 19.3742 0
176 1 26.7228 20.4555 0
177 1 11.3429 23.0259 0
178 1 9.05029 5.30428 0
179 1 25.9969 12.6224 0
180 1 19.7986 9.15768 0
181 1 13.5992 6.03655 0
182 1 4.42202 5.23918 0
183 1 18.9977 5.32151 0
184 1 0.54376 8.35606 0
185 1 18.4343 29.4572 0
186 1 14.7511 19.6414 0
187 1 28.3928 11.0576 0
188 1 8.26797 24.493 0
189 1 1.66812 3.01939 0
190 1 28.5842 26.5789 0
191 1 5.3669 11.5617 0
192 1 12.0873 12.1172 0
193 1 0.551182 17.9733 0
194 1 26.1607 26.9456 0
